 vasp.5.4.4.18Apr17-6-g9f103f2a35 (build Apr 13 2025 12:23:30) complex

 executed on             LinuxIFC date 2025.04.17  14:00:12

 INCAR:
 POTCAR:    PAW_PBE Co 02Aug2007
 POTCAR:    PAW_PBE O 08Apr2002
 POTCAR:    PAW_PBE Co 02Aug2007
   VRHFIN =Co: d8 s1

   TITEL  = PAW_PBE Co 02Aug2007
   POMASS =   58.933; ZVAL   =    9.000    mass and valenz
   ENMAX  =  267.968; ENMIN  =  200.976 eV

   TITEL  = PAW_PBE O 08Apr2002
   POMASS =   16.000; ZVAL   =    6.000    mass and valenz
   ENMAX  =  400.000; ENMIN  =  300.000 eV

  PAW_PBE Co 02Aug2007                  :
  PAW_PBE O 08Apr2002                   :

 POSCAR: Co O
  positions in cartesian coordinates
 exchange correlation table for  LEXCH =        8
   RHO(1)=    0.500       N(1)  =     2000
   RHO(2)=  100.500       N(2)  =     4000

 VTST: version 3.2, (02/03/18)

 CHAIN: initializing optimizer

 OPT: Using VASP Conjugate-Gradient optimizer
 CHAIN: Read ICHAIN            0

 POSCAR: Co O
  positions in cartesian coordinates

 ion  position               nearest neighbor table
   1  0.363  0.000  0.217-   3 1.88   5 1.88   4 1.88   4 1.88   6 1.88   6 1.88   2 2.83   2 2.83
                             2 2.83   2 2.83
   2  0.863  0.500  0.217-   4 1.88   6 1.88   3 1.88   3 1.88   5 1.88   5 1.88   1 2.83   1 2.83
                             1 2.83   1 2.83
   3  0.696  0.000  0.403-   1 1.88   2 1.88   2 1.88
   4  0.196  0.500  0.403-   2 1.88   1 1.88   1 1.88
   5  0.030  0.000  0.030-   1 1.88   2 1.88   2 1.88
   6  0.530  0.500  0.030-   2 1.88   1 1.88   1 1.88

  LATTYP: Found a simple monoclinic cell.
 ALAT       =     7.0345874932
 B/A-ratio  =     0.4017524344
 C/A-ratio  =     1.5955499500
 COS(beta)  =    -0.9497723909

  Lattice vectors:

 A1 = (  -4.5422715404,   0.0000000000,  -5.3715165877)
 A2 = (   0.0000000000,  -2.8261626503,  -0.0000000000)
 A3 = (   4.2013278466,   0.0000000000,  10.4080652493)

Analysis of symmetry for initial positions (statically):
 Subroutine PRICEL returns following result:

  LATTYP: Found a base centered monoclinic cell.
 ALAT       =     4.8946904564
 B/A-ratio  =     0.5773935401
 C/A-ratio  =     2.2510795844
 COS(beta)  =    -0.7697729284

[...]

   2 primitive cells build up your supercell.

 Routine SETGRP: Setting up the symmetry group for a
 simple monoclinic supercell.

 Subroutine GETGRP returns: Found  2 space group operations
 (whereof  2 operations were pure point group operations)
 out of a pool of  4 trial point group operations.

The static configuration has the point symmetry C_1h.

Analysis of symmetry for dynamics (positions and initial velocities):
 Subroutine PRICEL returns following result:

  LATTYP: Found a base centered monoclinic cell.
 ALAT       =     4.8946904564
 B/A-ratio  =     0.5773935401
 C/A-ratio  =     2.2510795844
 COS(beta)  =    -0.7697729284

  Lattice vectors:

 A1 = (   2.4416076237,   1.4130813252,   0.1674839636)
 A2 = (   2.4416076237,  -1.4130813252,   0.1674839636)
 A3 = (  -9.4254868009,   0.0000000000,  -5.7064845158)

   2 primitive cells build up your supercell.

 Routine SETGRP: Setting up the symmetry group for a
 simple monoclinic supercell.

 Subroutine GETGRP returns: Found  2 space group operations
 (whereof  2 operations were pure point group operations)
 out of a pool of  4 trial point group operations.

The dynamic configuration has the point symmetry C_1h.

 Subroutine INISYM returns: Found  2 space group operations
 (whereof  2 operations are pure point group operations),
 and found     2 'primitive' translations

 KPOINTS: KPOINTS created by Atomic Simulation Env

Automatic generation of k-mesh.
Space group operators:
 irot       det(A)        alpha          n_x          n_y          n_z        tau_x        tau_y        tau_z
    1     1.000000     0.000000     1.000000     0.000000     0.000000     0.000000     0.000000     0.000000
    2    -1.000000   180.000000    -0.000000    -1.000000     0.000000     0.000000     0.000000     0.000000

 Subroutine IBZKPT returns following result:

 Found    120 irreducible k-points:

 Following reciprocal coordinates:
            Coordinates               Weight
  0.000000  0.000000  0.000000      1.000000
  0.166667  0.000000 -0.000000      2.000000
  0.333333  0.000000  0.000000      2.000000
  0.500000 -0.000000  0.000000      1.000000
  0.000000  0.090909 -0.000000      2.000000
  0.166667  0.090909 -0.000000      4.000000
  0.333333  0.090909  0.000000      4.000000
  0.500000  0.090909 -0.000000      2.000000
  0.000000  0.181818 -0.000000      2.000000
  0.166667  0.181818  0.000000      4.000000
  0.333333  0.181818 -0.000000      4.000000
  0.500000  0.181818  0.000000      2.000000
  0.000000  0.272727  0.000000      2.000000
  0.166667  0.272727  0.000000      4.000000
  0.333333  0.272727  0.000000      4.000000
  0.500000  0.272727 -0.000000      2.000000
  0.000000  0.363636 -0.000000      2.000000
  0.166667  0.363636  0.000000      4.000000
  0.333333  0.363636  0.000000      4.000000
  0.500000  0.363636  0.000000      2.000000
  0.000000  0.454545  0.000000      2.000000
  0.166667  0.454545 -0.000000      4.000000
  0.333333  0.454545  0.000000      4.000000
  0.500000  0.454545 -0.000000      2.000000
 -0.000000 -0.000000  0.166667      2.000000
  0.166667 -0.000000  0.166667      2.000000
  0.333333 -0.000000  0.166667      2.000000
  0.500000 -0.000000  0.166667      2.000000
 -0.333333 -0.000000  0.166667      2.000000
 -0.166667  0.000000  0.166667      2.000000
  0.000000  0.090909  0.166667      4.000000
  0.166667  0.090909  0.166667      4.000000
  0.333333  0.090909  0.166667      4.000000
  0.500000  0.090909  0.166667      4.000000
 -0.333333  0.090909  0.166667      4.000000
 -0.166667  0.090909  0.166667      4.000000
 -0.000000  0.181818  0.166667      4.000000
  0.166667  0.181818  0.166667      4.000000
  0.333333  0.181818  0.166667      4.000000
  0.500000  0.181818  0.166667      4.000000
 -0.333333  0.181818  0.166667      4.000000
 -0.166667  0.181818  0.166667      4.000000
 -0.000000  0.272727  0.166667      4.000000
  0.166667  0.272727  0.166667      4.000000
  0.333333  0.272727  0.166667      4.000000
  0.500000  0.272727  0.166667      4.000000
 -0.333333  0.272727  0.166667      4.000000
 -0.166667  0.272727  0.166667      4.000000
 -0.000000  0.363636  0.166667      4.000000
  0.166667  0.363636  0.166667      4.000000
  0.333333  0.363636  0.166667      4.000000
  0.500000  0.363636  0.166667      4.000000
 -0.333333  0.363636  0.166667      4.000000
 -0.166667  0.363636  0.166667      4.000000
 -0.000000  0.454545  0.166667      4.000000
  0.166667  0.454545  0.166667      4.000000
  0.333333  0.454545  0.166667      4.000000
  0.500000  0.454545  0.166667      4.000000
 -0.333333  0.454545  0.166667      4.000000
 -0.166667  0.454545  0.166667      4.000000
[...]
  0.166667  0.181818  0.500000      4.000000
  0.333333  0.181818  0.500000      4.000000
  0.500000  0.181818  0.500000      2.000000
 -0.000000  0.272727  0.500000      2.000000
  0.166667  0.272727  0.500000      4.000000
  0.333333  0.272727  0.500000      4.000000
  0.500000  0.272727  0.500000      2.000000
  0.000000  0.363636  0.500000      2.000000
  0.166667  0.363636  0.500000      4.000000
  0.333333  0.363636  0.500000      4.000000
  0.500000  0.363636  0.500000      2.000000
  0.000000  0.454545  0.500000      2.000000
  0.166667  0.454545  0.500000      4.000000
  0.333333  0.454545  0.500000      4.000000
  0.500000  0.454545  0.500000      2.000000

 Following cartesian coordinates:
            Coordinates               Weight
  0.000000  0.000000  0.000000      1.000000
  0.033973  0.000000  0.002300      2.000000
  0.067946  0.000000  0.004599      2.000000
  0.101918  0.000000  0.006899      1.000000
  0.000000  0.032167 -0.000000      2.000000
  0.033973  0.032167  0.002300      4.000000
  0.067946  0.032167  0.004599      4.000000
  0.101918  0.032167  0.006899      2.000000
  0.000000  0.064334 -0.000000      2.000000
  0.033973  0.064334  0.002300      4.000000
  0.067946  0.064334  0.004599      4.000000
  0.101918  0.064334  0.006899      2.000000
  0.000000  0.096501 -0.000000      2.000000
  0.033973  0.096501  0.002300      4.000000
  0.067946  0.096501  0.004599      4.000000
  0.101918  0.096501  0.006899      2.000000
  0.000000  0.128668 -0.000000      2.000000
  0.033973  0.128668  0.002300      4.000000
  0.067946  0.128668  0.004599      4.000000
  0.101918  0.128668  0.006899      2.000000
  0.000000  0.160835 -0.000000      2.000000
  0.033973  0.160835  0.002300      4.000000
  0.067946  0.160835  0.004599      4.000000
  0.101918  0.160835  0.006899      2.000000
 -0.002259 -0.000000  0.032938      2.000000
  0.031713 -0.000000  0.035238      2.000000
  0.065686  0.000000  0.037538      2.000000
  0.099659  0.000000  0.039838      2.000000
 -0.070205 -0.000000  0.028339      2.000000
 -0.036232 -0.000000  0.030639      2.000000
 -0.002259  0.032167  0.032938      4.000000
  0.031713  0.032167  0.035238      4.000000
  0.065686  0.032167  0.037538      4.000000
  0.099659  0.032167  0.039838      4.000000
 -0.070205  0.032167  0.028339      4.000000
 -0.036232  0.032167  0.030639      4.000000
 -0.002259  0.064334  0.032938      4.000000
  0.031713  0.064334  0.035238      4.000000
  0.065686  0.064334  0.037538      4.000000
  0.099659  0.064334  0.039838      4.000000
 -0.070205  0.064334  0.028339      4.000000
 -0.036232  0.064334  0.030639      4.000000
 -0.002259  0.096501  0.032938      4.000000
  0.031713  0.096501  0.035238      4.000000
  0.065686  0.096501  0.037538      4.000000
  0.099659  0.096501  0.039838      4.000000
 -0.070205  0.096501  0.028339      4.000000
 -0.036232  0.096501  0.030639      4.000000
 -0.002259  0.128668  0.032938      4.000000
  0.031713  0.128668  0.035238      4.000000
  0.065686  0.128668  0.037538      4.000000
  0.099659  0.128668  0.039838      4.000000
 -0.070205  0.128668  0.028339      4.000000
 -0.036232  0.128668  0.030639      4.000000
 -0.002259  0.160835  0.032938      4.000000
  0.031713  0.160835  0.035238      4.000000
  0.065686  0.160835  0.037538      4.000000
  0.099659  0.160835  0.039838      4.000000
 -0.070205  0.160835  0.028339      4.000000
 -0.036232  0.160835  0.030639      4.000000
[...]
  0.027194  0.064334  0.101115      4.000000
  0.061167  0.064334  0.103415      4.000000
  0.095140  0.064334  0.105715      2.000000
 -0.006778  0.096501  0.098815      2.000000
  0.027194  0.096501  0.101115      4.000000
  0.061167  0.096501  0.103415      4.000000
  0.095140  0.096501  0.105715      2.000000
 -0.006778  0.128668  0.098815      2.000000
  0.027194  0.128668  0.101115      4.000000
  0.061167  0.128668  0.103415      4.000000
  0.095140  0.128668  0.105715      2.000000
 -0.006778  0.160835  0.098815      2.000000
  0.027194  0.160835  0.101115      4.000000
  0.061167  0.160835  0.103415      4.000000
  0.095140  0.160835  0.105715      2.000000

 SYSTEM =  unknown system
 POSCAR =  Co O

 Startparameter for this run:
   NWRITE =      2    write-flag & timer
   PREC   = normal    normal or accurate (medium, high low for compatibility)
[...]
 k-point ** :   0.0000 0.1818 0.5000  plane waves:    1260
 k-point ** :   0.1667 0.1818 0.5000  plane waves:    1273
 k-point ** :   0.3333 0.1818 0.5000  plane waves:    1270
 k-point ** :   0.5000 0.1818 0.5000  plane waves:    1278
 k-point ** :  -0.0000 0.2727 0.5000  plane waves:    1260
 k-point ** :   0.1667 0.2727 0.5000  plane waves:    1273
 k-point ** :   0.3333 0.2727 0.5000  plane waves:    1277
 k-point ** :   0.5000 0.2727 0.5000  plane waves:    1278
 k-point ** :   0.0000 0.3636 0.5000  plane waves:    1266
 k-point ** :   0.1667 0.3636 0.5000  plane waves:    1273
 k-point ** :   0.3333 0.3636 0.5000  plane waves:    1263
 k-point ** :   0.5000 0.3636 0.5000  plane waves:    1272
 k-point ** :   0.0000 0.4545 0.5000  plane waves:    1266
 k-point ** :   0.1667 0.4545 0.5000  plane waves:    1261
 k-point ** :   0.3333 0.4545 0.5000  plane waves:    1260
 k-point ** :   0.5000 0.4545 0.5000  plane waves:    1264

 maximum and minimum number of plane-waves per node :       336      306

 maximum number of plane-waves:      1288
 maximum index in each direction:
   IXMAX=    8   IYMAX=    4   IZMAX=    8
   IXMIN=   -8   IYMIN=   -5   IZMIN=   -8

 parallel 3D FFT for wavefunctions:
    minimum data exchange during FFTs selected (reduces bandwidth)
 parallel 3D FFT for charge:
    minimum data exchange during FFTs selected (reduces bandwidth)

 Broyden mixing: mesh for mixing (old mesh)
   NGX = 15   NGY =  9   NGZ = 17
  (NGX  = 48   NGY  = 28   NGZ  = 56)
  gives a total of   2295 points

 initial charge density was supplied:
 charge density of overlapping atoms calculated
 number of electron      42.0000000 magnetization
 keeping initial charge density in first step

 Maximum index for augmentation-charges          375 (set IRDMAX)

 First call to EWALD:  gamma=   0.430
 Maximum number of real-space cells 2x 4x 2
 Maximum number of reciprocal cells 3x 2x 3

--------------------------------------- Iteration      1(   1)  ---------------------------------------

 eigenvalue-minimisations  :  6720
 total energy-change (2. order) : 0.3772577E+03  (-0.1737319E+04)
 number of electron      42.0000000 magnetization
 augmentation part       42.0000000 magnetization

 Free energy of the ion-electron system (eV)
  alpha Z        PSCENC =       112.32995743
  Ewald energy   TEWEN  =     -1968.82179816
  -Hartree energ DENC   =     -1425.47338582
  -exchange      EXHF   =         0.00000000
  -V(xc)+E(xc)   XCENC  =       143.16919021
  PAW double counting   =      2828.22046682    -2941.47506522
  entropy T*S    EENTRO =        -0.00900835
  eigenvalues    EBANDS =       273.54911195
  atomic energy  EATOM  =      3355.76825234
  Solvation  Ediel_sol  =         0.00000000
  free energy    TOTEN  =       377.25772120 eV

  energy without entropy =      377.26672955  energy(sigma->0) =      377.26222537

[...]

 eigenvalue-minimisations  :  7352
 total energy-change (2. order) :-0.3786257E+03  (-0.3479623E+03)
 number of electron      42.0000000 magnetization
 augmentation part       42.0000000 magnetization

[...]

 Broyden mixing:
  rms(total) = 0.37088E+01    rms(broyden)= 0.37073E+01
  rms(prec ) = 0.63566E+01
  weight for this iteration     100.00

[...]

 eigenvalues of (default mixing * dielectric matrix)
  average eigenvalue GAMMA=   0.2291
  0.2291

[...]

 average (electrostatic) potential at core
  the test charge radii are     1.0452  0.7215
  (the norm of the test charge is              1.0000)
       1 -87.0194       2 -87.0194       3 -73.3521       4 -73.3521       5 -73.3520
       6 -73.3520

 E-fermi :   1.9734     XC(G=0): -10.0650     alpha+bet : -9.7983

 k-point     1 :       0.0000    0.0000    0.0000
  band No.  band energies     occupation
      1     -17.5171      2.00000
      2     -15.7469      2.00000
      3     -15.7055      2.00000
      4     -15.2696      2.00000
      5      -4.4172      2.00000
      6      -3.5319      2.00000
      7      -3.2905      2.00000
      8      -3.2900      2.00000
      9      -2.5823      2.00000
     10      -2.5197      2.00000
     11      -1.5806      2.00000
     12      -0.7810      2.00000
     13      -0.0715      2.00000
     14       0.5900      2.00000
     15       0.5906      2.00000
     16       0.8001      2.00000
     17       0.8005      2.00000
     18       0.8088      2.00000
     19       0.9440      2.00000
     20       1.1004      2.00000
     21       1.6208      2.00000
     22       2.1676      0.00601
     23       4.0135      0.00000
     24       4.5592      0.00000
     25       4.6848      0.00000
     26       4.6857      0.00000
     27       9.2719      0.00000
     28      12.9468      0.00000

[...]

 soft charge-density along one line, spin component           1
         0         1         2         3         4         5         6         7         8         9
 total charge-density along one line

------------------------ aborting loop because EDIFF is reached ----------------------------------------

  FORCE on cell =-STRESS in cart. coord.  units (eV):
  Direction    XX          YY          ZZ          XY          YZ          ZX
  Alpha Z   112.32996   112.32996   112.32996
  Ewald      88.68811    99.25507 -2156.76672    -0.00000     0.00000   154.80979
  Hartree  1014.57619  1022.31774  -627.78039    -0.00000    -0.00000   113.21869
  E(xc)    -209.60680  -209.60194  -210.46119     0.00000    -0.00000     0.05873
  Local   -1911.23286 -1929.41825  1956.01729     0.00000     0.00000  -266.64498
  n-local   -96.23391   -96.22437  -100.07367     0.08453    -0.33694     0.25598
  augment   333.02012   332.99392   336.31053     0.00000     0.00000    -0.21037
  Kinetic   664.70254   664.59201   685.97560    -0.02180     0.45264    -1.44430
  Fock        0.00000     0.00000     0.00000     0.00000     0.00000     0.00000
  Total      -3.75667    -3.75587    -4.44859     0.00000    -0.00000     0.04355
  in kB     -86.19172   -86.17326  -102.06696     0.00000    -0.00000     0.99909

 VOLUME and BASIS-vectors are now :
  energy-cutoff  :      400.00
  volume of cell :       69.83
      direct lattice vectors                 reciprocal lattice vectors
     4.883215234 -0.000000000  0.334967926     0.203836591  0.000000000  0.013798497
    -0.000000000  2.826162650  0.000000000     0.000000000  0.353836677 -0.000000000
    -0.340943694  0.000000000  5.036548662    -0.013556649 -0.000000000  0.197630960

[...]

 FORCES acting on ions
    electron-ion (+dipol)            ewald-force                    non-local-force                 convergence-correction
   0.123E-02 -.296E-06 -.961E-03   -.141E-02 0.218E-05 0.139E-02   -.107E-02 0.492E-18 0.269E-03   0.500E-04 -.171E-09 -.710E-03
   0.123E-02 0.146E-05 -.964E-03   -.141E-02 -.218E-05 0.139E-02   -.107E-02 0.494E-18 0.269E-03   0.500E-04 0.179E-09 -.710E-03
   0.261E+02 -.579E-06 -.381E+03   -.278E+02 0.119E-05 0.406E+03   0.172E+01 -.800E-14 -.251E+02   0.205E-05 -.136E-09 -.146E-03
   0.261E+02 -.516E-05 -.381E+03   -.278E+02 -.119E-05 0.406E+03   0.172E+01 -.800E-14 -.251E+02   0.206E-05 -.870E-10 -.146E-03
   -.261E+02 -.579E-06 0.381E+03   0.278E+02 0.119E-05 -.406E+03   -.172E+01 0.800E-14 0.251E+02   0.270E-04 -.136E-09 -.228E-03
   -.261E+02 -.516E-05 0.381E+03   0.278E+02 -.119E-05 -.406E+03   -.172E+01 0.800E-14 0.251E+02   0.270E-04 -.771E-10 -.228E-03
   -.365E-02 -.103E-04 0.599E-03   0.000E+00 -.839E-15 -.568E-13   -.430E-02 0.808E-17 0.233E-02   0.158E-03 -.428E-09 -.217E-02

 POSITION                                       TOTAL-FORCE (eV/Angst)
      1.70037     -0.00000      1.21297         0.000097     -0.000000     -0.000141
      4.14197      1.41308      1.38046         0.000097     -0.000000     -0.000141
      3.26363     -0.00000      2.26422         0.028452     -0.000000     -0.419597
      0.82203      1.41308      2.09673         0.028452     -0.000000     -0.419597
      0.13709     -0.00000      0.16168        -0.028549      0.000000      0.419738
      2.57870      1.41308      0.32916        -0.028549      0.000000      0.419738
    total drift:                               -0.007786     -0.000010      0.000761

  FREE ENERGIE OF THE ION-ELECTRON SYSTEM (eV)
  free  energy   TOTEN  =       -38.94014846 eV

  energy  without entropy=      -38.89244024  energy(sigma->0) =      -38.91629435

 stress matrix after NEB project (eV)
     -3.75667      0.00000      0.04355
      0.00000     -3.75587     -0.00000
      0.04355     -0.00000     -4.44859
  FORCES: max atom, RMS     0.420708    0.343447
  FORCE total and by dimension    0.841269    0.419738
  Stress total and by dimension    6.929131    4.448592

[...]

 E-fermi :   3.0904     XC(G=0): -10.5298     alpha+bet :-10.8046

[...]

 d Force =-0.4290467E-01[-0.119E+00, 0.329E-01]  d Energy =-0.1516829E+00 0.109E+00
 d Force =-0.3300214E+02[-0.342E+02,-0.318E+02]  d Ewald  = 0.4028736E+02-0.733E+02

 stress matrix after NEB project (eV)
      8.21309     -0.00000      0.28421
     -0.00000      8.22433      0.00000
      0.28421      0.00000      4.07754
  FORCES: max atom, RMS     1.517081    1.238651
  FORCE total and by dimension    3.034063    1.513498
  Stress total and by dimension   12.324051    8.224326
 Steepest descent step on ions:
 trial-energy change:    0.151683  1 .order    0.172521   -0.420188    0.765230
  (g-gl).g = 0.420E+00      g.g   = 0.420E+00  gl.gl    = 0.000E+00
 g(Force)  = 0.341E-01   g(Stress)= 0.386E+00 ortho     = 0.000E+00
 gamma     =   0.00000
 trial     =   1.00000
 opt step  =   0.37930  (harmonic =   0.35446) maximal distance =0.00768047
 next E    =   -39.020973   (d E  =  -0.08082)

[...]

 eigenvalue-minimisations  :  7464
 total energy-change (2. order) :-0.3706660E+00  (-0.6857829E+00)
 number of electron      41.9999931 magnetization
 augmentation part       11.8374437 magnetization

[...]

 Broyden mixing:
  rms(total) = 0.12394E-02    rms(broyden)= 0.12392E-02
  rms(prec ) = 0.19076E-02
  weight for this iteration     100.00

 eigenvalues of (default mixing * dielectric matrix)
  average eigenvalue GAMMA=   1.3143
  2.8542  2.3937  0.3559  1.1216  1.1216  1.3220  0.8597  0.4861

[...]

--------------------------------------- Iteration      3(  10)  ---------------------------------------

 eigenvalue-minimisations  :  6752
 total energy-change (2. order) : 0.3999176E-06  (-0.7210568E-06)
 number of electron      41.9999931 magnetization
 augmentation part       12.4874205 magnetization

 Free energy of the ion-electron system (eV)
  alpha Z        PSCENC =       116.52940033
  Ewald energy   TEWEN  =     -1984.45733588
  -Hartree energ DENC   =     -1407.77751448
  -exchange      EXHF   =         0.00000000
  -V(xc)+E(xc)   XCENC  =       144.62053715
  PAW double counting   =      3987.65035859    -4101.99924121
  entropy T*S    EENTRO =        -0.04540514
  eigenvalues    EBANDS =      -149.31155312
  atomic energy  EATOM  =      3355.76825234
  Solvation  Ediel_sol  =         0.00000000
  free energy    TOTEN  =       -39.02250141 eV

  energy without entropy =      -38.97709627  energy(sigma->0) =      -38.99979884

 average (electrostatic) potential at core
  the test charge radii are     1.0452  0.7215
  (the norm of the test charge is              1.0000)
       1 -86.6977       2 -86.6977       3 -73.0151       4 -73.0151       5 -73.0153
       6 -73.0153

 E-fermi :   2.3778     XC(G=0): -10.2379     alpha+bet :-10.1646

[...]

 k-point   120 :       0.5000    0.4545    0.5000
  band No.  band energies     occupation
      1     -15.6360      2.00000
      2     -15.6360      2.00000
      3     -15.4427      2.00000
      4     -15.4427      2.00000
      5      -4.3396      2.00000
      6      -4.3396      2.00000
      7      -2.5849      2.00000
      8      -2.5849      2.00000
      9      -2.3693      2.00000
     10      -2.3693      2.00000
     11      -1.2617      2.00000
     12      -1.2617      2.00000
     13      -0.5555      2.00000
     14      -0.5555      2.00000
     15       0.5170      2.00000
     16       0.5170      2.00000
     17       1.3245      2.00000
     18       1.3245      2.00000
     19       1.4701      2.00000
     20       1.4701      2.00000
     21       1.9899      2.00000
     22       1.9899      2.00000
     23       4.5059      0.00000
     24       4.5059      0.00000
     25       5.0629      0.00000
     26       5.0629      0.00000
     27      14.0697      0.00000
     28      14.0697      0.00000

 soft charge-density along one line, spin component           1
         0         1         2         3         4         5         6         7         8         9
 total charge-density along one line

------------------------ aborting loop because EDIFF is reached ----------------------------------------

  FORCE on cell =-STRESS in cart. coord.  units (eV):
  Direction    XX          YY          ZZ          XY          YZ          ZX
  Alpha Z   116.52940   116.52940   116.52940
  Ewald     103.13151   113.92821 -2201.51800    -0.00000     0.00000   158.87577
  Hartree  1024.15697  1032.02077  -648.38575    -0.00000    -0.00000   115.28491
  E(xc)    -210.35608  -210.35121  -211.23598     0.00000     0.00000     0.06036
  Local   -1938.38975 -1956.92070  2015.71769     0.00000     0.00000  -272.60685
  n-local   -94.12247   -94.11635   -98.54033     0.08579    -0.34624     0.29503
  augment   332.36703   332.35440   336.23967    -0.00000    -0.00000    -0.24800
  Kinetic   667.09516   666.97619   689.82323     0.01420     0.42495    -1.54225
  Fock        0.00000     0.00000     0.00000     0.00000     0.00000     0.00000
  Total       0.41177     0.42070    -1.37007    -0.00000    -0.00000     0.11897
  in kB       9.80080    10.01325   -32.60962    -0.00000    -0.00000     2.83166

 VOLUME and BASIS-vectors are now :
  energy-cutoff  :      400.00
  volume of cell :       67.31
      direct lattice vectors                 reciprocal lattice vectors
     4.827314056 -0.000000000  0.331071951     0.206197081  0.000000000  0.013960514
    -0.000000000  2.793791009  0.000000000     0.000000000  0.357936580 -0.000000000
    -0.336368736  0.000000000  4.968173100    -0.013740679 -0.000000000  0.200350923

  length of vectors
     4.838653701  2.793791009  4.979546955     0.206669137  0.357936580  0.200821559

 FORCES acting on ions
    electron-ion (+dipol)            ewald-force                    non-local-force                 convergence-correction
   0.216E-02 -.309E-06 -.425E-02   -.220E-02 0.226E-05 0.134E-02   -.508E-03 0.570E-18 0.133E-02   -.155E-03 -.629E-11 0.221E-02
   0.215E-02 0.153E-05 -.425E-02   -.220E-02 -.226E-05 0.134E-02   -.508E-03 0.571E-18 0.133E-02   -.155E-03 0.340E-10 0.221E-02
   0.268E+02 -.601E-06 -.391E+03   -.286E+02 0.124E-05 0.417E+03   0.174E+01 -.787E-14 -.254E+02   -.215E-03 -.896E-11 0.315E-02
   0.268E+02 -.505E-05 -.391E+03   -.286E+02 -.124E-05 0.417E+03   0.174E+01 -.787E-14 -.254E+02   -.215E-03 -.108E-11 0.315E-02
   -.268E+02 -.601E-06 0.391E+03   0.286E+02 0.124E-05 -.417E+03   -.174E+01 0.787E-14 0.254E+02   0.139E-03 -.895E-11 -.202E-02
   -.268E+02 -.505E-05 0.391E+03   0.286E+02 -.124E-05 -.417E+03   -.174E+01 0.787E-14 0.254E+02   0.139E-03 0.486E-10 -.202E-02
   -.507E-02 -.101E-04 -.930E-02   0.142E-13 0.594E-14 0.000E+00   -.475E-02 0.146E-17 0.654E-02   -.463E-03 0.573E-10 0.667E-02

 POSITION                                       TOTAL-FORCE (eV/Angst)
      1.68105     -0.00000      1.19674         0.001007     -0.000000     -0.000025
      4.09470      1.39690      1.36228         0.001007     -0.000000     -0.000025
      3.22703     -0.00000      2.22682        -0.016399      0.000000      0.225719
      0.81337      1.39690      2.06128        -0.016399      0.000000      0.225719
      0.13506     -0.00000      0.16662         0.015392     -0.000000     -0.225695
      2.54871      1.39690      0.33216         0.015392     -0.000000     -0.225695
    total drift:                               -0.010279     -0.000010      0.003908

  FREE ENERGIE OF THE ION-ELECTRON SYSTEM (eV)
  free  energy   TOTEN  =       -39.02250141 eV

  energy  without entropy=      -38.97709627  energy(sigma->0) =      -38.99979884

 d Force = 0.4492771E-01[ 0.117E-01, 0.782E-01]  d Energy = 0.2340358E+00-0.189E+00
 d Force = 0.2201399E+02[ 0.215E+02, 0.225E+02]  d Ewald  =-0.2465182E+02 0.467E+02

 stress matrix after NEB project (eV)
      0.41177     -0.00000      0.11897
     -0.00000      0.42070     -0.00000
      0.11897     -0.00000     -1.37007
  FORCES: max atom, RMS     0.226314    0.184747
  FORCE total and by dimension    0.452535    0.225719
  Stress total and by dimension    1.500650    1.370072

 reached required accuracy - stopping structural energy minimisation