 vasp.5.4.4.18Apr17-6-g9f103f2a35 (build Apr 13 2025 12:23:30) complex

 executed on             LinuxIFC date 2025.04.17  14:00:12

 INCAR:
 POTCAR:    PAW_PBE Li 17Jan2003
 POTCAR:    PAW_PBE Li 17Jan2003
   VRHFIN =Li: s1p0

   TITEL  = PAW_PBE Li 17Jan2003
   POMASS =    7.010; ZVAL   =    1.000    mass and valenz
   ENMAX  =  140.000; ENMIN  =  100.000 eV

  PAW_PBE Li 17Jan2003                  :

 POSCAR: Li
  positions in cartesian coordinates
 exchange correlation table for  LEXCH =        8
   RHO(1)=    0.500       N(1)  =     2000
   RHO(2)=  100.500       N(2)  =     4000

 VTST: version 3.2, (02/03/18)

 CHAIN: initializing optimizer

 OPT: Using VASP Conjugate-Gradient optimizer
 CHAIN: Read ICHAIN            0

 POSCAR: Li
  positions in cartesian coordinates

 ion  position               nearest neighbor table
   1  0.000  0.000  0.000-   2 3.05   3 3.05   4 3.05   2 3.05   2 3.05   3 3.05   3 3.05   4 3.05
                             4 3.05   2 3.05   3 3.05   4 3.05
   2  0.000  0.500  0.500-   1 3.05   4 3.05   3 3.05   1 3.05   1 3.05   4 3.05   4 3.05   3 3.05
                             3 3.05   1 3.05   4 3.05   3 3.05
   3  0.500  0.000  0.500-   4 3.05   1 3.05   2 3.05   4 3.05   4 3.05   1 3.05   1 3.05   2 3.05
                             2 3.05   4 3.05   1 3.05   2 3.05
   4  0.500  0.500  0.000-   3 3.05   2 3.05   1 3.05   3 3.05   3 3.05   2 3.05   2 3.05   1 3.05
                             1 3.05   3 3.05   2 3.05   1 3.05

  LATTYP: Found a simple cubic cell.
 ALAT       =     4.3119766302

  Lattice vectors:

 A1 = (   4.3119766302,   0.0000000000,   0.0000000000)
 A2 = (   0.0000000000,   4.3119766302,   0.0000000000)
 A3 = (   0.0000000000,   0.0000000000,   4.3119766302)

Analysis of symmetry for initial positions (statically):
 Subroutine PRICEL returns following result:

  LATTYP: Found a face centered cubic cell.
 ALAT       =     4.3119766302

[...]

   4 primitive cells build up your supercell.

 Routine SETGRP: Setting up the symmetry group for a
 simple cubic supercell.

 Subroutine GETGRP returns: Found 48 space group operations
 (whereof 48 operations were pure point group operations)
 out of a pool of 48 trial point group operations.

The static configuration has the point symmetry O_h .

Analysis of symmetry for dynamics (positions and initial velocities):
 Subroutine PRICEL returns following result:

  LATTYP: Found a face centered cubic cell.
 ALAT       =     4.3119766302

  Lattice vectors:

 A1 = (   2.1559883151,   2.1559883151,   0.0000000000)
 A2 = (   2.1559883151,   0.0000000000,  -2.1559883151)
 A3 = (   0.0000000000,   2.1559883151,  -2.1559883151)

   4 primitive cells build up your supercell.

 Routine SETGRP: Setting up the symmetry group for a
 simple cubic supercell.

 Subroutine GETGRP returns: Found 48 space group operations
 (whereof 48 operations were pure point group operations)
 out of a pool of 48 trial point group operations.

The dynamic configuration has the point symmetry O_h .

 Subroutine INISYM returns: Found 48 space group operations
 (whereof 48 operations are pure point group operations),
 and found     4 'primitive' translations

 KPOINTS: KPOINTS created by Atomic Simulation Env

Automatic generation of k-mesh.
Space group operators:
 irot       det(A)        alpha          n_x          n_y          n_z        tau_x        tau_y        tau_z
    1     1.000000     0.000001     1.000000     0.000000     0.000000     0.000000     0.000000     0.000000
    2    -1.000000     0.000001     1.000000     0.000000     0.000000     0.000000     0.000000     0.000000
    3     1.000000   120.000000    -0.577350    -0.577350    -0.577350     0.000000     0.000000     0.000000
    4    -1.000000   120.000000    -0.577350    -0.577350    -0.577350     0.000000     0.000000     0.000000
    5     1.000000   120.000000     0.577350     0.577350     0.577350     0.000000     0.000000     0.000000
    6    -1.000000   120.000000     0.577350     0.577350     0.577350     0.000000     0.000000     0.000000
    7     1.000000    90.000000     0.000000     0.000000    -1.000000     0.000000     0.000000     0.000000
    8    -1.000000    90.000000     0.000000     0.000000    -1.000000     0.000000     0.000000     0.000000
    9     1.000000   180.000000     0.000000    -0.707107    -0.707107     0.000000     0.000000     0.000000
   10    -1.000000   180.000000     0.000000    -0.707107    -0.707107     0.000000     0.000000     0.000000
   11     1.000000    90.000000    -0.000000     1.000000     0.000000     0.000000     0.000000     0.000000
   12    -1.000000    90.000000    -0.000000     1.000000     0.000000     0.000000     0.000000     0.000000
   13     1.000000   180.000000     0.000000     0.000000     1.000000     0.000000     0.000000     0.000000
   14    -1.000000   180.000000     0.000000     0.000000     1.000000     0.000000     0.000000     0.000000
   15     1.000000   120.000000    -0.577350     0.577350     0.577350     0.000000     0.000000     0.000000
   16    -1.000000   120.000000    -0.577350     0.577350     0.577350     0.000000     0.000000     0.000000
   17     1.000000   120.000000    -0.577350     0.577350    -0.577350     0.000000     0.000000     0.000000
   18    -1.000000   120.000000    -0.577350     0.577350    -0.577350     0.000000     0.000000     0.000000
   19     1.000000    90.000000     0.000000     0.000000     1.000000     0.000000     0.000000     0.000000
   20    -1.000000    90.000000     0.000000     0.000000     1.000000     0.000000     0.000000     0.000000
   21     1.000000    90.000000    -1.000000     0.000000    -0.000000     0.000000     0.000000     0.000000
   22    -1.000000    90.000000    -1.000000     0.000000    -0.000000     0.000000     0.000000     0.000000
   23     1.000000   180.000000     0.707107     0.000000     0.707107     0.000000     0.000000     0.000000
   24    -1.000000   180.000000     0.707107     0.000000     0.707107     0.000000     0.000000     0.000000
   25     1.000000   120.000000     0.577350    -0.577350     0.577350     0.000000     0.000000     0.000000
   26    -1.000000   120.000000     0.577350    -0.577350     0.577350     0.000000     0.000000     0.000000
   27     1.000000   120.000000    -0.577350    -0.577350     0.577350     0.000000     0.000000     0.000000
   28    -1.000000   120.000000    -0.577350    -0.577350     0.577350     0.000000     0.000000     0.000000
   29     1.000000   179.999999     1.000000     0.000000     0.000000     0.000000     0.000000     0.000000
   30    -1.000000   179.999999     1.000000     0.000000     0.000000     0.000000     0.000000     0.000000
   31     1.000000    90.000000     0.000000    -1.000000     0.000000     0.000000     0.000000     0.000000
   32    -1.000000    90.000000     0.000000    -1.000000     0.000000     0.000000     0.000000     0.000000
   33     1.000000   179.999999    -0.707107    -0.707107     0.000000     0.000000     0.000000     0.000000
   34    -1.000000   179.999999    -0.707107    -0.707107     0.000000     0.000000     0.000000     0.000000
   35     1.000000    90.000000     1.000000    -0.000000    -0.000000     0.000000     0.000000     0.000000
   36    -1.000000    90.000000     1.000000    -0.000000    -0.000000     0.000000     0.000000     0.000000
   37     1.000000   120.000000     0.577350    -0.577350    -0.577350     0.000000     0.000000     0.000000
   38    -1.000000   120.000000     0.577350    -0.577350    -0.577350     0.000000     0.000000     0.000000
   39     1.000000   179.999999    -0.000000     1.000000     0.000000     0.000000     0.000000     0.000000
   40    -1.000000   179.999999    -0.000000     1.000000     0.000000     0.000000     0.000000     0.000000
   41     1.000000   120.000000     0.577350     0.577350    -0.577350     0.000000     0.000000     0.000000
   42    -1.000000   120.000000     0.577350     0.577350    -0.577350     0.000000     0.000000     0.000000
   43     1.000000   180.000000     0.000000    -0.707107     0.707107     0.000000     0.000000     0.000000
   44    -1.000000   180.000000     0.000000    -0.707107     0.707107     0.000000     0.000000     0.000000
   45     1.000000   179.999999     0.707107    -0.707107     0.000000     0.000000     0.000000     0.000000
   46    -1.000000   179.999999     0.707107    -0.707107     0.000000     0.000000     0.000000     0.000000
   47     1.000000   180.000000     0.707107     0.000000    -0.707107     0.000000     0.000000     0.000000
   48    -1.000000   180.000000     0.707107     0.000000    -0.707107     0.000000     0.000000     0.000000

 Subroutine IBZKPT returns following result:

 Found     20 irreducible k-points:

 Following reciprocal coordinates:
            Coordinates               Weight
  0.000000  0.000000  0.000000      1.000000
  0.142857  0.000000  0.000000      6.000000
  0.285714  0.000000  0.000000      6.000000
  0.428571  0.000000  0.000000      6.000000
  0.142857  0.142857  0.000000     12.000000
  0.285714  0.142857  0.000000     24.000000
  0.428571  0.142857  0.000000     24.000000
  0.285714  0.285714  0.000000     12.000000
  0.428571  0.285714  0.000000     24.000000
  0.428571  0.428571  0.000000     12.000000
  0.142857  0.142857  0.142857      8.000000
  0.285714  0.142857  0.142857     24.000000
  0.428571  0.142857  0.142857     24.000000
  0.285714  0.285714  0.142857     24.000000
  0.428571  0.285714  0.142857     48.000000
  0.428571  0.428571  0.142857     24.000000
  0.285714  0.285714  0.285714      8.000000
  0.428571  0.285714  0.285714     24.000000
  0.428571  0.428571  0.285714     24.000000
  0.428571  0.428571  0.428571      8.000000

 Following cartesian coordinates:
            Coordinates               Weight
  0.000000  0.000000  0.000000      1.000000
  0.033130 -0.000000  0.000000      6.000000
  0.066261 -0.000000  0.000000      6.000000
  0.099391 -0.000000  0.000000      6.000000
  0.033130  0.033130  0.000000     12.000000
  0.066261  0.033130  0.000000     24.000000
  0.099391  0.033130  0.000000     24.000000
  0.066261  0.066261  0.000000     12.000000
  0.099391  0.066261  0.000000     24.000000
  0.099391  0.099391  0.000000     12.000000
  0.033130  0.033130  0.033130      8.000000
  0.066261  0.033130  0.033130     24.000000
  0.099391  0.033130  0.033130     24.000000
  0.066261  0.066261  0.033130     24.000000
  0.099391  0.066261  0.033130     48.000000
  0.099391  0.099391  0.033130     24.000000
  0.066261  0.066261  0.066261      8.000000
  0.099391  0.066261  0.066261     24.000000
  0.099391  0.099391  0.066261     24.000000
  0.099391  0.099391  0.099391      8.000000

 SYSTEM =  unknown system
 POSCAR =  Li

 Startparameter for this run:
   NWRITE =      2    write-flag & timer
   PREC   = normal    normal or accurate (medium, high low for compatibility)
   ISTART =      0    job   : 0-new  1-cont  2-samecut
   ICHARG =      2    charge: 1-file 2-atom 10-const
   ISPIN  =      1    spin polarized calculation?
   LNONCOLLINEAR =      F non collinear calculations
   LSORBIT =      F    spin-orbit coupling
[...]
   EMIN   =  10.00;   EMAX   =-10.00  energy-range for DOS
   EFERMI =   0.00
   ISMEAR =     0;   SIGMA  =   0.10  broadening in eV -4-tet -1-fermi 0-gaus

 Electronic relaxation 2 (details)
   IALGO  =     38    algorithm
   LDIAG  =      T    sub-space diagonalisation (order eigenvalues)
   LSUBROT=      F    optimize rotation matrix (better conditioning)
   TURBO    =      0    0=normal 1=particle mesh
   IRESTART =      0    0=no restart 2=restart with 2 vectors
   NREBOOT  =      0    no. of reboots
   NMIN     =      0    reboot dimension
   EREF     =   0.00    reference energy to select bands
   IMIX   =      4    mixing-type and parameters
     AMIX     =   0.40;   BMIX     =  1.00
     AMIX_MAG =   1.60;   BMIX_MAG =  1.00
     AMIN     =   0.10
     WC   =   100.;   INIMIX=   1;  MIXPRE=   1;  MAXMIX= -45

 Intra band minimization:
   WEIMIN = 0.0010     energy-eigenvalue tresh-hold
   EBREAK =  0.31E-07  absolut break condition
   DEPER  =   0.30     relativ break condition

   TIME   =   0.40     timestep for ELM

  volume/ion in A,a.u.               =      20.04       135.26
  Fermi-wavevector in a.u.,A,eV,Ry     =   0.602678  1.138896  4.941913  0.363220
  Thomas-Fermi vector in A             =   1.655375

 Write flags
   LWAVE        =      F    write WAVECAR
   LDOWNSAMPLE  =      F    k-point downsampling of WAVECAR
   LCHARG       =      F    write CHGCAR
   LVTOT        =      F    write LOCPOT, total local potential
   LVHAR        =      F    write LOCPOT, Hartree potential only
   LELF         =      F    write electronic localiz. function (ELF)
   LORBIT       =      0    0 simple, 1 ext, 2 COOP (PROOUT), +10 PAW based schemes

 Dipole corrections
   LMONO  =      F    monopole corrections only (constant potential shift)
   LDIPOL =      F    correct potential (dipole corrections)
   IDIPOL =      0    1-x, 2-y, 3-z, 4-all directions
   EPSILON=  1.0000000 bulk dielectric constant

 Exchange correlation treatment:
   GGA     =    PE    GGA type
   VOSKOWN=      0    Vosko Wilk Nusair interpolation
   LHFCALC =     F    Hartree Fock is set to
   LHFONE  =     F    Hartree Fock one center treatment
   AEXX    =    0.0000 exact exchange contribution

 Linear response parameters
   LEPSILON=     F    determine dielectric tensor
   LRPA    =     F    only Hartree local field effects (RPA)
   LNABLA  =     F    use nabla operator in PAW spheres
   LVEL    =     F    velocity operator in full k-point grid
   LINTERFAST=   F  fast interpolation
   KINTER  =     0    interpolate to denser k-point grid
   CSHIFT  =0.1000    complex shift for real part using Kramers Kronig
   OMEGAMAX=  -1.0    maximum frequency
   DEG_THRESHOLD= 0.2000000E-02 threshold for treating states as degnerate
   RTIME   =   -0.100 relaxation time in fs
  (WPLASMAI=    0.000 imaginary part of plasma frequency in eV, 0.658/RTIME)
   DFIELD  = 0.0000000 0.0000000 0.0000000 field for delta impulse in time

 Orbital magnetization related:
   ORBITALMAG=     F  switch on orbital magnetization
   LCHIMAG   =     F  perturbation theory with respect to B field
   DQ        =  0.001000  dq finite difference perturbation B field
   LLRAUG    =     F  two centre corrections for induced B field

 conjugate gradient relaxation of ions
 charge density and potential will be updated during run
 non-spin polarized calculation
 Variant of blocked Davidson
 Davidson routine will perform the subspace rotation
 perform sub-space diagonalisation
    after iterative eigenvector-optimisation
 modified Broyden-mixing scheme, WC =      100.0
 initial mixing is a Kerker type mixing with AMIX =  0.4000 and BMIX =      1.0000
 Hartree-type preconditioning will be used
 using additional bands            6
 reciprocal scheme for non local part
 use partial core corrections
 calculate Harris-corrections to forces
   (improved forces if not selfconsistent)
 use gradient corrections
 use of overlap-Matrix (Vanderbilt PP)
 Gauss-broadening in eV      SIGMA  =   0.10

  energy-cutoff  :      400.00
  volume of cell :       80.17
      direct lattice vectors                 reciprocal lattice vectors
     4.311976630  0.000000000  0.000000000     0.231912203 -0.000000000  0.000000000
     0.000000000  4.311976630  0.000000000    -0.000000000  0.231912203  0.000000000
     0.000000000  0.000000000  4.311976630     0.000000000  0.000000000  0.231912203

  length of vectors
     4.311976630  4.311976630  4.311976630     0.231912203  0.231912203  0.231912203

 k-points in units of 2pi/SCALE and weight: KPOINTS created by Atomic Simulation Env
   0.00000000  0.00000000  0.00000000       0.003
   0.03313031 -0.00000000  0.00000000       0.017
   0.06626063 -0.00000000  0.00000000       0.017
   0.09939094 -0.00000000  0.00000000       0.017
   0.03313031  0.03313031  0.00000000       0.035
   0.06626063  0.03313031  0.00000000       0.070
   0.09939094  0.03313031  0.00000000       0.070
   0.06626063  0.06626063  0.00000000       0.035
   0.09939094  0.06626063  0.00000000       0.070
   0.09939094  0.09939094  0.00000000       0.035
   0.03313031  0.03313031  0.03313031       0.023
   0.06626063  0.03313031  0.03313031       0.070
   0.09939094  0.03313031  0.03313031       0.070
   0.06626063  0.06626063  0.03313031       0.070
   0.09939094  0.06626063  0.03313031       0.140
   0.09939094  0.09939094  0.03313031       0.070
   0.06626063  0.06626063  0.06626063       0.023
   0.09939094  0.06626063  0.06626063       0.070
   0.09939094  0.09939094  0.06626063       0.070
   0.09939094  0.09939094  0.09939094       0.023

 k-points in reciprocal lattice and weights: KPOINTS created by Atomic Simulation Env
   0.00000000  0.00000000  0.00000000       0.003
   0.14285714  0.00000000  0.00000000       0.017
   0.28571429  0.00000000  0.00000000       0.017
   0.42857143  0.00000000  0.00000000       0.017
   0.14285714  0.14285714  0.00000000       0.035
   0.28571429  0.14285714  0.00000000       0.070
   0.42857143  0.14285714  0.00000000       0.070
   0.28571429  0.28571429  0.00000000       0.035
   0.42857143  0.28571429  0.00000000       0.070
   0.42857143  0.42857143  0.00000000       0.035
   0.14285714  0.14285714  0.14285714       0.023
   0.28571429  0.14285714  0.14285714       0.070
   0.42857143  0.14285714  0.14285714       0.070
   0.28571429  0.28571429  0.14285714       0.070
   0.42857143  0.28571429  0.14285714       0.140
   0.42857143  0.42857143  0.14285714       0.070
   0.28571429  0.28571429  0.28571429       0.023
   0.42857143  0.28571429  0.28571429       0.070
   0.42857143  0.42857143  0.28571429       0.070
   0.42857143  0.42857143  0.42857143       0.023

 position of ions in fractional coordinates (direct lattice)
   0.00000000  0.00000000  0.00000000
   0.00000000  0.50000000  0.50000000
   0.50000000  0.00000000  0.50000000
   0.50000000  0.50000000  0.00000000

 position of ions in cartesian coordinates  (Angst):
   0.00000000  0.00000000  0.00000000
   0.00000000  2.15598832  2.15598832
   2.15598832  0.00000000  2.15598832
   2.15598832  2.15598832  0.00000000

 k-point  1 :   0.0000 0.0000 0.0000  plane waves:    1419
 k-point  2 :   0.1429 0.0000 0.0000  plane waves:    1430
 k-point  3 :   0.2857 0.0000 0.0000  plane waves:    1434
 k-point  4 :   0.4286 0.0000 0.0000  plane waves:    1450
 k-point  5 :   0.1429 0.1429 0.0000  plane waves:    1436
 k-point  6 :   0.2857 0.1429 0.0000  plane waves:    1450
 k-point  7 :   0.4286 0.1429 0.0000  plane waves:    1459
 k-point  8 :   0.2857 0.2857 0.0000  plane waves:    1454
 k-point  9 :   0.4286 0.2857 0.0000  plane waves:    1469
 k-point 10 :   0.4286 0.4286 0.0000  plane waves:    1454
 k-point 11 :   0.1429 0.1429 0.1429  plane waves:    1451
 k-point 12 :   0.2857 0.1429 0.1429  plane waves:    1461
 k-point 13 :   0.4286 0.1429 0.1429  plane waves:    1456
 k-point 14 :   0.2857 0.2857 0.1429  plane waves:    1457
 k-point 15 :   0.4286 0.2857 0.1429  plane waves:    1460
 k-point 16 :   0.4286 0.4286 0.1429  plane waves:    1458
 k-point 17 :   0.2857 0.2857 0.2857  plane waves:    1457
 k-point 18 :   0.4286 0.2857 0.2857  plane waves:    1467
 k-point 19 :   0.4286 0.4286 0.2857  plane waves:    1457
 k-point 20 :   0.4286 0.4286 0.4286  plane waves:    1466

 maximum and minimum number of plane-waves per node :       380      347

 maximum number of plane-waves:      1469
 maximum index in each direction:
   IXMAX=    7   IYMAX=    7   IZMAX=    7
   IXMIN=   -7   IYMIN=   -7   IZMIN=   -7

 parallel 3D FFT for wavefunctions:
    minimum data exchange during FFTs selected (reduces bandwidth)
 parallel 3D FFT for charge:
    minimum data exchange during FFTs selected (reduces bandwidth)

 Broyden mixing: mesh for mixing (old mesh)
   NGX = 15   NGY = 15   NGZ = 15
  (NGX  = 48   NGY  = 48   NGZ  = 48)
  gives a total of   3375 points

 initial charge density was supplied:
 charge density of overlapping atoms calculated
 number of electron       4.0000000 magnetization
 keeping initial charge density in first step

 Maximum index for augmentation-charges          373 (set IRDMAX)

 First call to EWALD:  gamma=   0.411
 Maximum number of real-space cells 3x 3x 3
 Maximum number of reciprocal cells 3x 3x 3

--------------------------------------- Iteration      1(   1)  ---------------------------------------

 eigenvalue-minimisations  :   320
 total energy-change (2. order) :-0.5828846E+01  (-0.9295344E+02)
 number of electron       4.0000000 magnetization
 augmentation part        4.0000000 magnetization

 Free energy of the ion-electron system (eV)
  alpha Z        PSCENC =         0.52280763
  Ewald energy   TEWEN  =       -30.62216910
  -Hartree energ DENC   =        -0.01836037
  -exchange      EXHF   =         0.00000000
  -V(xc)+E(xc)   XCENC  =       -17.08343932
  PAW double counting   =        30.65046236       -8.41690918
  entropy T*S    EENTRO =        -0.00773332
  eigenvalues    EBANDS =        -2.05386008
  atomic energy  EATOM  =        21.20035548
  Solvation  Ediel_sol  =         0.00000000
  free energy    TOTEN  =        -5.82884591 eV

  energy without entropy =       -5.82111259  energy(sigma->0) =       -5.82497925

[...]

 Broyden mixing:
  rms(total) = 0.28017E-01    rms(broyden)= 0.28017E-01
  rms(prec ) = 0.71825E-01
  weight for this iteration     100.00

[...]

 eigenvalue-minimisations  :   368
 total energy-change (2. order) : 0.4313442E-02  (-0.1940410E-04)
 number of electron       4.0000000 magnetization
 augmentation part        0.0313107 magnetization

[...]

 eigenvalues of (default mixing * dielectric matrix)
  average eigenvalue GAMMA=   2.8959
  2.8959

[...]

 eigenvalue-minimisations  :   352
 total energy-change (2. order) : 0.9161058E-05  (-0.1093743E-06)
 number of electron       4.0000000 magnetization
 augmentation part        0.0314852 magnetization

 Broyden mixing:
  rms(total) = 0.32217E-04    rms(broyden)= 0.32217E-04
  rms(prec ) = 0.61814E-04
  weight for this iteration     100.00

 eigenvalues of (default mixing * dielectric matrix)
  average eigenvalue GAMMA=   2.2678
  0.9404  2.4051  2.6870  3.0387

[...]

--------------------------------------- Iteration      1(  10)  ---------------------------------------

 eigenvalue-minimisations  :   192
 total energy-change (2. order) :-0.6864160E-07  (-0.5074513E-09)
 number of electron       4.0000000 magnetization
 augmentation part        0.0314852 magnetization

 Free energy of the ion-electron system (eV)
  alpha Z        PSCENC =         0.52280763
  Ewald energy   TEWEN  =       -30.62216910
  -Hartree energ DENC   =        -0.05205973
  -exchange      EXHF   =         0.00000000
  -V(xc)+E(xc)   XCENC  =       -16.98422701
  PAW double counting   =        37.25333868      -15.05148974
  entropy T*S    EENTRO =        -0.00960876
  eigenvalues    EBANDS =        -3.86632696
  atomic energy  EATOM  =        21.20035548
  Solvation  Ediel_sol  =         0.00000000
  free energy    TOTEN  =        -7.60937952 eV

  energy without entropy =       -7.59977076  energy(sigma->0) =       -7.60457514

 average (electrostatic) potential at core
  the test charge radii are     0.9748
  (the norm of the test charge is              1.0000)
       1 -30.5064       2 -30.5064       3 -30.5064       4 -30.5064

 E-fermi :   0.4158     XC(G=0):  -6.7941     alpha+bet : -7.3276

 k-point     1 :       0.0000    0.0000    0.0000
  band No.  band energies     occupation
      1      -3.1618      2.00000
      2       1.9708      0.00000
      3       1.9708      0.00000
      4       1.9708      0.00000
      5       5.1671      0.00000
      6       5.1671      0.00000
      7       5.1671      0.00000
      8       8.9364      0.00000

[...]

 k-point    20 :       0.4286    0.4286    0.4286
  band No.  band energies     occupation
      1      -0.0618      2.00000
      2       0.4545      0.58434
      3       0.4545      0.58434
      4       0.4545      0.58434
      5       3.4988      0.00000
      6       3.4988      0.00000
      7       3.4988      0.00000
      8       4.0702      0.00000

 soft charge-density along one line, spin component           1
         0         1         2         3         4         5         6         7         8         9
 total charge-density along one line

------------------------ aborting loop because EDIFF is reached ----------------------------------------

  FORCE on cell =-STRESS in cart. coord.  units (eV):
  Direction    XX          YY          ZZ          XY          YZ          ZX
  Alpha Z     0.52281     0.52281     0.52281
  Ewald     -10.20739   -10.20739   -10.20739     0.00000    -0.00000    -0.00000
  Hartree     0.01735     0.01735     0.01735    -0.00000    -0.00000    -0.00000
  E(xc)      -7.04856    -7.04856    -7.04856     0.00000    -0.00000     0.00000
  Local       0.54905     0.54905     0.54905     0.00000     0.00000     0.00000
  n-local     5.38686     6.14681     6.64210     0.11931    -0.07786    -0.00760
  augment     0.26220     0.26220     0.26220     0.00000     0.00000     0.00000
  Kinetic    16.90660     8.56108     4.32926    -2.04631     1.77385     0.32821
  Fock        0.00000     0.00000     0.00000     0.00000     0.00000     0.00000
  Total       0.08635     0.08635     0.08635    -0.00000     0.00000     0.00000
  in kB       1.72566     1.72566     1.72566    -0.00000     0.00000     0.00000

 VOLUME and BASIS-vectors are now :
  energy-cutoff  :      400.00
  volume of cell :       80.17
      direct lattice vectors                 reciprocal lattice vectors
     4.311976630  0.000000000  0.000000000     0.231912203 -0.000000000  0.000000000
     0.000000000  4.311976630  0.000000000    -0.000000000  0.231912203  0.000000000
     0.000000000  0.000000000  4.311976630     0.000000000  0.000000000  0.231912203

  length of vectors
     4.311976630  4.311976630  4.311976630     0.231912203  0.231912203  0.231912203

 FORCES acting on ions
    electron-ion (+dipol)            ewald-force                    non-local-force                 convergence-correction
   -.119E-09 -.119E-09 -.119E-09   0.150E-07 0.150E-07 0.150E-07   -.102E-24 -.103E-24 0.000E+00   -.865E-11 -.865E-11 -.865E-11
   -.119E-09 0.137E-07 0.137E-07   0.150E-07 -.150E-07 -.150E-07   -.205E-24 0.103E-24 0.000E+00   -.865E-11 0.865E-11 0.865E-11
   0.137E-07 -.119E-09 0.137E-07   -.150E-07 0.150E-07 -.150E-07   -.348E-25 0.155E-24 0.000E+00   0.865E-11 -.865E-11 0.865E-11
   0.137E-07 0.137E-07 -.119E-09   -.150E-07 -.150E-07 0.150E-07   0.292E-25 0.000E+00 0.000E+00   0.865E-11 0.865E-11 -.865E-11
   0.272E-07 0.272E-07 0.272E-07   -.243E-16 -.797E-17 -.115E-16   -.313E-24 0.155E-24 0.000E+00   0.749E-14 0.749E-14 0.749E-14

 POSITION                                       TOTAL-FORCE (eV/Angst)
      0.00000      0.00000      0.00000         0.000000      0.000000      0.000000
      0.00000      2.15599      2.15599         0.000000     -0.000000     -0.000000
      2.15599      0.00000      2.15599        -0.000000      0.000000     -0.000000
      2.15599      2.15599      0.00000        -0.000000     -0.000000      0.000000
    total drift:                                0.000000      0.000000      0.000000

  FREE ENERGIE OF THE ION-ELECTRON SYSTEM (eV)
  free  energy   TOTEN  =        -7.60937952 eV

  energy  without entropy=       -7.59977076  energy(sigma->0) =       -7.60457514

 stress matrix after NEB project (eV)
      0.08635     -0.00000      0.00000
     -0.00000      0.08635     -0.00000
     -0.00000      0.00000      0.08635
  FORCES: max atom, RMS     0.000000    0.000000
  FORCE total and by dimension    0.000000    0.000000
  Stress total and by dimension    0.149567    0.086352

 reached required accuracy - stopping structural energy minimisation