 vasp.5.4.4.18Apr17-6-g9f103f2a35 (build Apr 13 2025 12:23:30) complex

 executed on             LinuxIFC date 2025.04.17  14:00:12

 INCAR:
 POTCAR:    PAW_PBE O 08Apr2002
 POTCAR:    PAW_PBE Na 08Apr2002
 POTCAR:    PAW_PBE O 08Apr2002
   VRHFIN =O: s2p4

   TITEL  = PAW_PBE O 08Apr2002
   POMASS =   16.000; ZVAL   =    6.000    mass and valenz
   ENMAX  =  400.000; ENMIN  =  300.000 eV

   TITEL  = PAW_PBE Na 08Apr2002
   POMASS =   22.990; ZVAL   =    1.000    mass and valenz
   ENMAX  =  101.968; ENMIN  =   76.476 eV

  PAW_PBE O 08Apr2002                   :
  PAW_PBE Na 08Apr2002                  :

 POSCAR: O  Na
  positions in cartesian coordinates
 exchange correlation table for  LEXCH =        8
   RHO(1)=    0.500       N(1)  =     2000
   RHO(2)=  100.500       N(2)  =     4000

 VTST: version 3.2, (02/03/18)

 CHAIN: initializing optimizer

 OPT: Using VASP Conjugate-Gradient optimizer
 CHAIN: Read ICHAIN            0

 POSCAR: O  Na
  positions in cartesian coordinates

 ion  position               nearest neighbor table
   1  0.000  0.000  0.000-   9 2.41   7 2.41   8 2.41   6 2.41  10 2.41  11 2.41  12 2.41   5 2.41

   2  0.000  0.500  0.500-  10 2.41   5 2.41   8 2.41   7 2.41  11 2.41  12 2.41   9 2.41   6 2.41

[...]

   4  0.500  0.500  0.000-  12 2.41   5 2.41   7 2.41   6 2.41  11 2.41  10 2.41   9 2.41   8 2.41

   5  0.250  0.250  0.250-   2 2.41   3 2.41   4 2.41   1 2.41  10 2.79  11 2.79  12 2.79  12 2.79
                            11 2.79  10 2.79   6 3.94   7 3.94   8 3.94   6 3.94   8 3.94   7 3.94
   6  0.250  0.750  0.750-   3 2.41   4 2.41   1 2.41   2 2.41   9 2.79  11 2.79  12 2.79  11 2.79
                            12 2.79   9 2.79   7 3.94   8 3.94   5 3.94   7 3.94   5 3.94   5 3.94
   7  0.750  0.250  0.750-   2 2.41   4 2.41   1 2.41   3 2.41   9 2.79  10 2.79  12 2.79  10 2.79
                            12 2.79   9 2.79   6 3.94   8 3.94   5 3.94   6 3.94   5 3.94   5 3.94
   8  0.750  0.750  0.250-   2 2.41   3 2.41   1 2.41   4 2.41   9 2.79  10 2.79  11 2.79  10 2.79
                            11 2.79   9 2.79   6 3.94   7 3.94   5 3.94   6 3.94   5 3.94   5 3.94
   9  0.750  0.750  0.750-   1 2.41   2 2.41   3 2.41   4 2.41   6 2.79   7 2.79   8 2.79   7 2.79
                             8 2.79   6 2.79  10 3.94  11 3.94  12 3.94  10 3.94  11 3.94  11 3.94
  10  0.750  0.250  0.250-   2 2.41   3 2.41   4 2.41   1 2.41   5 2.79   7 2.79   8 2.79   5 2.79
                             7 2.79   8 2.79  12 3.94   9 3.94  11 3.94  11 3.94   9 3.94  12 3.94
  11  0.250  0.750  0.250-   3 2.41   2 2.41   4 2.41   1 2.41   5 2.79   6 2.79   8 2.79   5 2.79
                             6 2.79   8 2.79  12 3.94   9 3.94  10 3.94  10 3.94   9 3.94  12 3.94
  12  0.250  0.250  0.750-   4 2.41   3 2.41   2 2.41   1 2.41   5 2.79   6 2.79   7 2.79   5 2.79
                             6 2.79   7 2.79  11 3.94   9 3.94  10 3.94  10 3.94   9 3.94  11 3.94

  LATTYP: Found a simple cubic cell.
 ALAT       =     5.5731565045

  Lattice vectors:

 A1 = (   5.5731565045,   0.0000000000,   0.0000000000)
 A2 = (   0.0000000000,   5.5731565045,   0.0000000000)
 A3 = (   0.0000000000,   0.0000000000,   5.5731565045)

Analysis of symmetry for initial positions (statically):
 Subroutine PRICEL returns following result:

  LATTYP: Found a face centered cubic cell.
 ALAT       =     5.5731565045

[...]

   4 primitive cells build up your supercell.

 Routine SETGRP: Setting up the symmetry group for a
 simple cubic supercell.

 Subroutine GETGRP returns: Found 48 space group operations
 (whereof 48 operations were pure point group operations)
 out of a pool of 48 trial point group operations.

The static configuration has the point symmetry O_h .

Analysis of symmetry for dynamics (positions and initial velocities):
 Subroutine PRICEL returns following result:

  LATTYP: Found a face centered cubic cell.
 ALAT       =     5.5731565045

  Lattice vectors:

 A1 = (   2.7865782523,   2.7865782523,  -0.0000000000)
 A2 = (   2.7865782523,   0.0000000000,  -2.7865782523)
 A3 = (   0.0000000000,   2.7865782523,  -2.7865782523)

   4 primitive cells build up your supercell.

 Routine SETGRP: Setting up the symmetry group for a
 simple cubic supercell.

 Subroutine GETGRP returns: Found 48 space group operations
 (whereof 48 operations were pure point group operations)
 out of a pool of 48 trial point group operations.

The dynamic configuration has the point symmetry O_h .

 Subroutine INISYM returns: Found 48 space group operations
 (whereof 48 operations are pure point group operations),
 and found     4 'primitive' translations

 KPOINTS: KPOINTS created by Atomic Simulation Env

Automatic generation of k-mesh.
Space group operators:
 irot       det(A)        alpha          n_x          n_y          n_z        tau_x        tau_y        tau_z
    1     1.000000     0.000000     1.000000     0.000000     0.000000     0.000000     0.000000     0.000000
    2    -1.000000     0.000000     1.000000     0.000000     0.000000     0.000000     0.000000     0.000000
    3     1.000000   120.000000    -0.577350    -0.577350    -0.577350     0.000000     0.000000     0.000000
    4    -1.000000   120.000000    -0.577350    -0.577350    -0.577350     0.000000     0.000000     0.000000
    5     1.000000   120.000000     0.577350     0.577350     0.577350     0.000000     0.000000     0.000000
    6    -1.000000   120.000000     0.577350     0.577350     0.577350     0.000000     0.000000     0.000000
    7     1.000000    90.000000     0.000000     0.000000    -1.000000     0.000000     0.000000     0.000000
    8    -1.000000    90.000000     0.000000     0.000000    -1.000000     0.000000     0.000000     0.000000
    9     1.000000   180.000000     0.000000     0.707107     0.707107     0.000000     0.000000     0.000000
   10    -1.000000   180.000000     0.000000     0.707107     0.707107     0.000000     0.000000     0.000000
   11     1.000000    90.000000     0.000000     1.000000     0.000000     0.000000     0.000000     0.000000
   12    -1.000000    90.000000     0.000000     1.000000     0.000000     0.000000     0.000000     0.000000
   13     1.000000   180.000000     0.000000     0.000000     1.000000     0.000000     0.000000     0.000000
   14    -1.000000   180.000000     0.000000     0.000000     1.000000     0.000000     0.000000     0.000000
   15     1.000000   120.000000    -0.577350     0.577350     0.577350     0.000000     0.000000     0.000000
   16    -1.000000   120.000000    -0.577350     0.577350     0.577350     0.000000     0.000000     0.000000
   17     1.000000   120.000000    -0.577350     0.577350    -0.577350     0.000000     0.000000     0.000000
   18    -1.000000   120.000000    -0.577350     0.577350    -0.577350     0.000000     0.000000     0.000000
   19     1.000000    90.000000     0.000000     0.000000     1.000000     0.000000     0.000000     0.000000
   20    -1.000000    90.000000     0.000000     0.000000     1.000000     0.000000     0.000000     0.000000
   21     1.000000    90.000000    -1.000000     0.000000     0.000000     0.000000     0.000000     0.000000
   22    -1.000000    90.000000    -1.000000     0.000000     0.000000     0.000000     0.000000     0.000000
   23     1.000000   180.000000     0.707107     0.000000     0.707107     0.000000     0.000000     0.000000
   24    -1.000000   180.000000     0.707107     0.000000     0.707107     0.000000     0.000000     0.000000
   25     1.000000   120.000000     0.577350    -0.577350     0.577350     0.000000     0.000000     0.000000
   26    -1.000000   120.000000     0.577350    -0.577350     0.577350     0.000000     0.000000     0.000000
   27     1.000000   120.000000    -0.577350    -0.577350     0.577350     0.000000     0.000000     0.000000
   28    -1.000000   120.000000    -0.577350    -0.577350     0.577350     0.000000     0.000000     0.000000
   29     1.000000   180.000000     1.000000     0.000000     0.000000     0.000000     0.000000     0.000000
   30    -1.000000   180.000000     1.000000     0.000000     0.000000     0.000000     0.000000     0.000000
   31     1.000000    90.000000     0.000000    -1.000000     0.000000     0.000000     0.000000     0.000000
   32    -1.000000    90.000000     0.000000    -1.000000     0.000000     0.000000     0.000000     0.000000
   33     1.000000   180.000000     0.707107     0.707107     0.000000     0.000000     0.000000     0.000000
   34    -1.000000   180.000000     0.707107     0.707107     0.000000     0.000000     0.000000     0.000000
   35     1.000000    90.000000     1.000000     0.000000     0.000000     0.000000     0.000000     0.000000
   36    -1.000000    90.000000     1.000000     0.000000     0.000000     0.000000     0.000000     0.000000
   37     1.000000   120.000000     0.577350    -0.577350    -0.577350     0.000000     0.000000     0.000000
   38    -1.000000   120.000000     0.577350    -0.577350    -0.577350     0.000000     0.000000     0.000000
   39     1.000000   180.000000     0.000000     1.000000     0.000000     0.000000     0.000000     0.000000
   40    -1.000000   180.000000     0.000000     1.000000     0.000000     0.000000     0.000000     0.000000
   41     1.000000   120.000000     0.577350     0.577350    -0.577350     0.000000     0.000000     0.000000
   42    -1.000000   120.000000     0.577350     0.577350    -0.577350     0.000000     0.000000     0.000000
   43     1.000000   180.000000     0.000000    -0.707107     0.707107     0.000000     0.000000     0.000000
   44    -1.000000   180.000000     0.000000    -0.707107     0.707107     0.000000     0.000000     0.000000
   45     1.000000   180.000000     0.707107    -0.707107     0.000000     0.000000     0.000000     0.000000
   46    -1.000000   180.000000     0.707107    -0.707107     0.000000     0.000000     0.000000     0.000000
   47     1.000000   180.000000     0.707107     0.000000    -0.707107     0.000000     0.000000     0.000000
   48    -1.000000   180.000000     0.707107     0.000000    -0.707107     0.000000     0.000000     0.000000

 Subroutine IBZKPT returns following result:

 Found     20 irreducible k-points:

 Following reciprocal coordinates:
            Coordinates               Weight
  0.000000  0.000000  0.000000      1.000000
  0.166667  0.000000  0.000000      6.000000
  0.333333  0.000000  0.000000      6.000000
  0.500000  0.000000  0.000000      3.000000
  0.166667  0.166667  0.000000     12.000000
  0.333333  0.166667  0.000000     24.000000
  0.500000  0.166667  0.000000     12.000000
  0.333333  0.333333  0.000000     12.000000
  0.500000  0.333333  0.000000     12.000000
  0.500000  0.500000  0.000000      3.000000
  0.166667  0.166667  0.166667      8.000000
  0.333333  0.166667  0.166667     24.000000
  0.500000  0.166667  0.166667     12.000000
  0.333333  0.333333  0.166667     24.000000
  0.500000  0.333333  0.166667     24.000000
  0.500000  0.500000  0.166667      6.000000
  0.333333  0.333333  0.333333      8.000000
  0.500000  0.333333  0.333333     12.000000
  0.500000  0.500000  0.333333      6.000000
  0.500000  0.500000  0.500000      1.000000

[...]
  -exchange      EXHF   =         0.00000000
  -V(xc)+E(xc)   XCENC  =      -182.83623811
  PAW double counting   =      1705.20707623    -1412.33381051
  entropy T*S    EENTRO =        -0.01069781
  eigenvalues    EBANDS =        51.36717176
  atomic energy  EATOM  =      1770.31717976
  Solvation  Ediel_sol  =         0.00000000
  free energy    TOTEN  =       217.03128880 eV

  energy without entropy =      217.04198660  energy(sigma->0) =      217.03663770

[...]

 eigenvalue-minimisations  :  1296
 total energy-change (2. order) :-0.2325153E+03  (-0.2175749E+03)
 number of electron      32.0000000 magnetization
 augmentation part       32.0000000 magnetization

[...]

 Broyden mixing:
  rms(total) = 0.17955E+01    rms(broyden)= 0.17949E+01
  rms(prec ) = 0.38723E+01
  weight for this iteration     100.00

[...]

 eigenvalues of (default mixing * dielectric matrix)
  average eigenvalue GAMMA=   0.6834
  0.6834

[...]

 average (electrostatic) potential at core
  the test charge radii are     0.7215  1.1212
  (the norm of the test charge is              1.0000)
       1 -71.3264       2 -71.3264       3 -71.3264       4 -71.3264       5 -40.6558
       6 -40.6558       7 -40.6558       8 -40.6558       9 -40.6558      10 -40.6558
      11 -40.6558      12 -40.6558

 E-fermi :   1.3127     XC(G=0):  -8.4170     alpha+bet :-10.2212

 k-point     1 :       0.0000    0.0000    0.0000
  band No.  band energies     occupation
      1     -13.7819      2.00000
      2     -13.5959      2.00000
      3     -13.5959      2.00000
      4     -13.5959      2.00000
      5      -0.3252      2.00000
      6      -0.3252      2.00000
      7      -0.3252      2.00000
      8       0.5810      2.00000
      9       0.5810      2.00000
     10       0.5810      2.00000
     11       0.5810      2.00000
     12       0.5810      2.00000
     13       0.5810      2.00000
     14       0.8528      2.00000
     15       0.8528      2.00000
     16       0.8528      2.00000
     17       2.7696      0.00000
     18       5.5422      0.00000
     19       5.5422      0.00000
     20       5.5422      0.00000
     21       9.6980      0.00000
     22       9.6980      0.00000
     23       9.6980      0.00000
     24      11.1083      0.00000

[...]

 soft charge-density along one line, spin component           1
         0         1         2         3         4         5         6         7         8         9
 total charge-density along one line

------------------------ aborting loop because EDIFF is reached ----------------------------------------

  FORCE on cell =-STRESS in cart. coord.  units (eV):
  Direction    XX          YY          ZZ          XY          YZ          ZX
  Alpha Z    -9.96256    -9.96256    -9.96256
  Ewald    -337.01215  -337.01215  -337.01215     0.00000    -0.00000    -0.00000
  Hartree   270.44740   270.44740   270.44740    -0.00000    -0.00000    -0.00000
  E(xc)    -140.95928  -140.95928  -140.95928     0.00000     0.00000     0.00000
  Local    -285.41436  -285.41436  -285.41436     0.00000     0.00000    -0.00000
  n-local   -70.99745   -72.20192   -73.25714     0.27615     0.18814     0.12952
  augment    27.27011    27.27011    27.27011     0.00000    -0.00000     0.00000
  Kinetic   538.61738   545.43093   549.34332    -1.21918    -0.91232    -0.59888
  Fock        0.00000     0.00000     0.00000     0.00000     0.00000     0.00000
  Total      -3.31913    -3.31913    -3.31913    -0.00000     0.00000     0.00000
  in kB     -30.72070   -30.72070   -30.72070    -0.00000     0.00000     0.00000

 VOLUME and BASIS-vectors are now :
  energy-cutoff  :      400.00
  volume of cell :      173.10
      direct lattice vectors                 reciprocal lattice vectors
     5.573156505  0.000000000  0.000000000     0.179431530  0.000000000  0.000000000
     0.000000000  5.573156505  0.000000000     0.000000000  0.179431530  0.000000000
     0.000000000  0.000000000  5.573156505     0.000000000  0.000000000  0.179431530

[...]

 FORCES acting on ions
    electron-ion (+dipol)            ewald-force                    non-local-force                 convergence-correction
   0.111E-07 0.111E-07 0.111E-07   -.691E-07 -.691E-07 -.691E-07   -.243E-23 0.207E-23 -.248E-23   0.115E-08 0.115E-08 0.115E-08
   0.111E-07 0.291E-05 0.291E-05   -.691E-07 0.199E-06 0.199E-06   -.434E-23 -.165E-23 -.277E-23   0.115E-08 -.112E-08 -.112E-08
   0.291E-05 0.111E-07 0.291E-05   0.199E-06 -.691E-07 0.199E-06   -.124E-23 -.165E-23 -.290E-23   -.112E-08 0.115E-08 -.112E-08
   0.291E-05 0.291E-05 0.111E-07   0.199E-06 0.199E-06 -.691E-07   -.827E-24 -.352E-23 -.352E-23   -.112E-08 -.112E-08 0.115E-08
   0.585E-07 0.585E-07 0.585E-07   -.522E-07 -.522E-07 -.522E-07   0.239E-17 -.813E-19 0.114E-17   0.640E-11 0.640E-11 0.640E-11
   0.585E-07 0.248E-07 0.248E-07   -.522E-07 -.126E-07 -.126E-07   0.526E-17 0.813E-18 0.217E-18   0.640E-11 -.639E-11 -.639E-11
   0.248E-07 0.585E-07 0.248E-07   -.126E-07 -.522E-07 -.126E-07   0.201E-17 0.157E-17 -.108E-18   -.639E-11 0.640E-11 -.639E-11
   0.248E-07 0.248E-07 0.585E-07   -.126E-07 -.126E-07 -.522E-07   0.477E-17 0.894E-18 0.244E-17   -.639E-11 -.639E-11 0.640E-11
   0.248E-07 0.248E-07 0.248E-07   -.126E-07 -.126E-07 -.126E-07   -.331E-17 0.136E-18 -.173E-17   -.639E-11 -.639E-11 -.639E-11
   0.248E-07 0.585E-07 0.585E-07   -.126E-07 -.522E-07 -.522E-07   -.472E-17 0.396E-17 -.445E-17   -.639E-11 0.640E-11 0.640E-11
   0.585E-07 0.248E-07 0.585E-07   -.522E-07 -.126E-07 -.522E-07   -.472E-17 0.260E-17 -.119E-17   0.640E-11 -.639E-11 0.640E-11
   0.585E-07 0.585E-07 0.248E-07   -.522E-07 -.522E-07 -.126E-07   -.342E-17 0.187E-17 -.282E-17   0.640E-11 0.640E-11 -.639E-11
   0.618E-05 0.618E-05 0.618E-05   0.889E-15 -.242E-16 0.227E-16   -.173E-17 0.118E-16 -.651E-17   0.572E-10 0.571E-10 0.571E-10

 POSITION                                       TOTAL-FORCE (eV/Angst)
      0.00000      0.00000      0.00000         0.000000     -0.000000     -0.000000
      0.00000      2.78658      2.78658         0.000000     -0.000000      0.000000
      2.78658      0.00000      2.78658         0.000000      0.000000      0.000000
      2.78658      2.78658      0.00000         0.000000      0.000000     -0.000000
      1.39329      1.39329      1.39329        -0.000000     -0.000000     -0.000000
      1.39329      4.17987      4.17987        -0.000000     -0.000000     -0.000000
      4.17987      1.39329      4.17987        -0.000000     -0.000000     -0.000000
      4.17987      4.17987      1.39329        -0.000000     -0.000000     -0.000000
      4.17987      4.17987      4.17987        -0.000000     -0.000000     -0.000000
      4.17987      1.39329      1.39329        -0.000000     -0.000000     -0.000000
      1.39329      4.17987      1.39329        -0.000000     -0.000000     -0.000000
      1.39329      1.39329      4.17987        -0.000000     -0.000000     -0.000000
    total drift:                                0.000006      0.000006      0.000006

  FREE ENERGIE OF THE ION-ELECTRON SYSTEM (eV)
  free  energy   TOTEN  =       -45.43728245 eV

  energy  without entropy=      -45.43728245  energy(sigma->0) =      -45.43728245

 stress matrix after NEB project (eV)
     -3.31913      0.00000      0.00000
     -0.00000     -3.31913     -0.00000
     -0.00000      0.00000     -3.31913
  FORCES: max atom, RMS     0.000000    0.000000
  FORCE total and by dimension    0.000000    0.000000
  Stress total and by dimension    5.748902    3.319130

[...]

 d Force = 0.0000000E+00[ 0.000E+00, 0.000E+00]  d Energy = 0.8114871E-01-0.811E-01
 d Force = 0.0000000E+00[ 0.000E+00, 0.000E+00]  d Ewald  = 0.1367334E+02-0.137E+02

 stress matrix after NEB project (eV)
     -0.69760     -0.00000     -0.00000
     -0.00000     -0.69760     -0.00000
      0.00000      0.00000     -0.69760
  FORCES: max atom, RMS     0.000000    0.000000
  FORCE total and by dimension    0.000000    0.000000
  Stress total and by dimension    1.208287    0.697605
 Steepest descent step on ions:
 trial-energy change:   -0.081149  1 .order   -0.080397   -0.132868   -0.027926
  (g-gl).g = 0.133E+00      g.g   = 0.133E+00  gl.gl    = 0.000E+00
 g(Force)  = 0.231E-46   g(Stress)= 0.133E+00 ortho     = 0.000E+00
 gamma     =   0.00000
 trial     =   1.00000
 opt step  =   1.25251  (harmonic =   1.26611) maximal distance =0.00000000
 next E    =   -45.521969   (d E  =  -0.08469)

[...]

 eigenvalue-minimisations  :  1112
 total energy-change (2. order) : 0.3460261E-04  (-0.2223368E-04)
 number of electron      32.0000220 magnetization
 augmentation part        2.5984310 magnetization

 Broyden mixing:
  rms(total) = 0.91078E-03    rms(broyden)= 0.90984E-03
  rms(prec ) = 0.15569E-02
  weight for this iteration     100.00

 eigenvalues of (default mixing * dielectric matrix)
  average eigenvalue GAMMA=   1.7701
  0.8487  0.8487  2.9422  2.4406

[...]

--------------------------------------- Iteration      3(   6)  ---------------------------------------

 eigenvalue-minimisations  :   960
 total energy-change (2. order) :-0.5635757E-06  (-0.6316642E-06)
 number of electron      32.0000220 magnetization
 augmentation part        2.5984310 magnetization

 Free energy of the ion-electron system (eV)
  alpha Z        PSCENC =       -10.47925064
  Ewald energy   TEWEN  =     -1028.21975022
  -Hartree energ DENC   =      -800.93118945
  -exchange      EXHF   =         0.00000000
  -V(xc)+E(xc)   XCENC  =      -174.13624086
  PAW double counting   =      2151.31578477    -1859.29917636
  entropy T*S    EENTRO =        -0.00000000
  eigenvalues    EBANDS =       -94.08947496
  atomic energy  EATOM  =      1770.31717976
  Solvation  Ediel_sol  =         0.00000000
  free energy    TOTEN  =       -45.52211797 eV

  energy without entropy =      -45.52211797  energy(sigma->0) =      -45.52211797

 average (electrostatic) potential at core
  the test charge radii are     0.7215  1.1212
  (the norm of the test charge is              1.0000)
       1 -71.0112       2 -71.0112       3 -71.0112       4 -71.0112       5 -40.3095
       6 -40.3095       7 -40.3095       8 -40.3095       9 -40.3095      10 -40.3095
      11 -40.3095      12 -40.3095

 E-fermi :   1.5863     XC(G=0):  -8.6114     alpha+bet :-10.7513

[...]

 k-point    20 :       0.5000    0.5000    0.5000
  band No.  band energies     occupation
      1     -13.4338      2.00000
      2     -13.4338      2.00000
      3     -13.4338      2.00000
      4     -13.4338      2.00000
      5      -0.4031      2.00000
      6      -0.4031      2.00000
      7      -0.4031      2.00000
      8      -0.4031      2.00000
      9       1.0328      2.00000
     10       1.0328      2.00000
     11       1.0328      2.00000
     12       1.0328      2.00000
     13       1.0328      2.00000
     14       1.0328      2.00000
     15       1.0328      2.00000
     16       1.0328      2.00000
     17       7.4499      0.00000
     18       7.4499      0.00000
     19       7.4499      0.00000
     20       7.4499      0.00000
     21       7.8605      0.00000
     22       7.8605      0.00000
     23       7.8605      0.00000
     24       7.8605      0.00000

 soft charge-density along one line, spin component           1
         0         1         2         3         4         5         6         7         8         9
 total charge-density along one line

------------------------ aborting loop because EDIFF is reached ----------------------------------------

  FORCE on cell =-STRESS in cart. coord.  units (eV):
  Direction    XX          YY          ZZ          XY          YZ          ZX
  Alpha Z   -10.47925   -10.47925   -10.47925
  Ewald    -342.74038  -342.74038  -342.74038    -0.00000    -0.00000    -0.00000
  Hartree   266.98706   266.98706   266.98706    -0.00000    -0.00000    -0.00000
  E(xc)    -141.92680  -141.92680  -141.92680     0.00000     0.00000     0.00000
  Local    -275.67981  -275.67981  -275.67981     0.00000     0.00000    -0.00000
  n-local   -69.26385   -70.43685   -71.50319     0.26465     0.18275     0.12498
  augment    27.56160    27.56160    27.56160    -0.00000    -0.00000     0.00000
  Kinetic   540.73820   547.63546   551.64226    -1.19150    -0.90254    -0.58904
  Fock        0.00000     0.00000     0.00000     0.00000     0.00000     0.00000
  Total      -0.00689    -0.00689    -0.00689    -0.00000     0.00000    -0.00000
  in kB      -0.06712    -0.06712    -0.06712    -0.00000     0.00000    -0.00000

 VOLUME and BASIS-vectors are now :
  energy-cutoff  :      400.00
  volume of cell :      164.57
      direct lattice vectors                 reciprocal lattice vectors
     5.480012163  0.000000000  0.000000000     0.182481347  0.000000000  0.000000000
    -0.000000000  5.480012163 -0.000000000    -0.000000000  0.182481347 -0.000000000
    -0.000000000  0.000000000  5.480012163    -0.000000000  0.000000000  0.182481347

  length of vectors
     5.480012163  5.480012163  5.480012163     0.182481347  0.182481347  0.182481347

 FORCES acting on ions
    electron-ion (+dipol)            ewald-force                    non-local-force                 convergence-correction
   0.115E-07 0.115E-07 0.115E-07   -.715E-07 -.715E-07 -.715E-07   -.124E-23 0.248E-23 0.000E+00   -.120E-10 -.120E-10 -.120E-10
   0.115E-07 0.286E-05 0.286E-05   -.715E-07 0.205E-06 0.205E-06   0.155E-23 -.620E-24 -.414E-24   -.120E-10 -.147E-10 -.147E-10
   0.286E-05 0.115E-07 0.286E-05   0.205E-06 -.715E-07 0.205E-06   -.248E-23 -.165E-23 -.290E-23   -.147E-10 -.120E-10 -.147E-10
   0.286E-05 0.286E-05 0.115E-07   0.205E-06 0.205E-06 -.715E-07   -.413E-24 -.931E-24 0.165E-23   -.147E-10 -.147E-10 -.120E-10
   0.612E-07 0.612E-07 0.612E-07   -.540E-07 -.540E-07 -.540E-07   -.157E-17 -.407E-18 -.244E-17   -.296E-13 -.287E-13 -.299E-13
   0.612E-07 0.259E-07 0.259E-07   -.540E-07 -.130E-07 -.130E-07   -.244E-17 -.100E-17 0.152E-17   -.296E-13 0.159E-13 0.174E-13
   0.259E-07 0.612E-07 0.259E-07   -.130E-07 -.540E-07 -.130E-07   0.922E-18 -.136E-18 0.108E-17   0.169E-13 -.287E-13 0.174E-13
   0.259E-07 0.259E-07 0.612E-07   -.130E-07 -.130E-07 -.540E-07   0.211E-17 -.192E-17 -.271E-18   0.169E-13 0.159E-13 -.299E-13
   0.259E-07 0.259E-07 0.259E-07   -.130E-07 -.130E-07 -.130E-07   -.244E-17 0.629E-17 -.233E-17   0.169E-13 0.160E-13 0.172E-13
   0.259E-07 0.612E-07 0.612E-07   -.130E-07 -.540E-07 -.540E-07   -.455E-17 0.759E-18 -.163E-18   0.169E-13 -.286E-13 -.302E-13
   0.612E-07 0.259E-07 0.612E-07   -.540E-07 -.130E-07 -.540E-07   -.434E-17 0.553E-17 -.542E-19   -.296E-13 0.159E-13 -.302E-13
   0.612E-07 0.612E-07 0.259E-07   -.540E-07 -.540E-07 -.130E-07   -.439E-17 0.163E-17 -.233E-17   -.296E-13 -.287E-13 0.172E-13
   0.608E-05 0.608E-05 0.608E-05   0.354E-14 -.706E-17 -.876E-15   -.167E-16 0.107E-16 -.499E-17   -.536E-10 -.536E-10 -.536E-10

 POSITION                                       TOTAL-FORCE (eV/Angst)
      0.00000     -0.00000     -0.00000        -0.000000     -0.000000      0.000000
     -0.00000      2.74001      2.74001         0.000000      0.000000      0.000000
      2.74001      0.00000      2.74001        -0.000000      0.000000      0.000000
      2.74001      2.74001     -0.00000        -0.000000     -0.000000      0.000000
      1.37000      1.37000      1.37000         0.000000     -0.000000     -0.000000
      1.37000      4.11001      4.11001         0.000000     -0.000000     -0.000000
      4.11001      1.37000      4.11001         0.000000     -0.000000     -0.000000
      4.11001      4.11001      1.37000         0.000000     -0.000000     -0.000000
      4.11001      4.11001      4.11001         0.000000     -0.000000     -0.000000
      4.11001      1.37000      1.37000         0.000000     -0.000000     -0.000000
      1.37000      4.11001      1.37000         0.000000     -0.000000     -0.000000
      1.37000      1.37000      4.11001         0.000000     -0.000000     -0.000000
    total drift:                                0.000006      0.000006      0.000006

  FREE ENERGIE OF THE ION-ELECTRON SYSTEM (eV)
  free  energy   TOTEN  =       -45.52211797 eV

  energy  without entropy=      -45.52211797  energy(sigma->0) =      -45.52211797

 d Force = 0.0000000E+00[ 0.000E+00, 0.000E+00]  d Energy = 0.3686807E-02-0.369E-02
 d Force = 0.0000000E+00[ 0.000E+00, 0.000E+00]  d Ewald  = 0.3511333E+01-0.351E+01

 stress matrix after NEB project (eV)
     -0.00689      0.00000     -0.00000
     -0.00000     -0.00689      0.00000
      0.00000      0.00000     -0.00689
  FORCES: max atom, RMS     0.000000    0.000000
  FORCE total and by dimension    0.000000    0.000000
  Stress total and by dimension    0.011941    0.006894

 reached required accuracy - stopping structural energy minimisation