 vasp.5.4.4.18Apr17-6-g9f103f2a35 (build Apr 13 2025 12:23:30) complex

 executed on             LinuxIFC date 2025.04.17  14:00:12

 INCAR:
 POTCAR:    PAW_PBE Na 08Apr2002
 POTCAR:    PAW_PBE Na 08Apr2002
   VRHFIN =Na: s1p0

   TITEL  = PAW_PBE Na 08Apr2002
   POMASS =   22.990; ZVAL   =    1.000    mass and valenz
   ENMAX  =  101.968; ENMIN  =   76.476 eV

  PAW_PBE Na 08Apr2002                  :

 POSCAR: Na
  positions in cartesian coordinates
 exchange correlation table for  LEXCH =        8
   RHO(1)=    0.500       N(1)  =     2000
   RHO(2)=  100.500       N(2)  =     4000

 VTST: version 3.2, (02/03/18)

 CHAIN: initializing optimizer

 OPT: Using VASP Conjugate-Gradient optimizer
 CHAIN: Read ICHAIN            0

 POSCAR: Na
  positions in cartesian coordinates

 ion  position               nearest neighbor table
   1  0.000  0.000  0.000-   2 3.63   2 3.63   2 3.63   2 3.63   2 3.63   2 3.63   2 3.63   2 3.63

   2  0.500  0.500  0.500-   1 3.63   1 3.63   1 3.63   1 3.63   1 3.63   1 3.63   1 3.63   1 3.63

  LATTYP: Found a simple cubic cell.
 ALAT       =     4.1958606731

  Lattice vectors:

 A1 = (   4.1958606731,   0.0000000000,   0.0000000000)
 A2 = (   0.0000000000,   4.1958606731,   0.0000000000)
 A3 = (   0.0000000000,   0.0000000000,   4.1958606731)

Analysis of symmetry for initial positions (statically):
 Subroutine PRICEL returns following result:

  LATTYP: Found a body centered cubic cell.
 ALAT       =     4.1958606731

[...]

   2 primitive cells build up your supercell.

 Routine SETGRP: Setting up the symmetry group for a
 simple cubic supercell.

 Subroutine GETGRP returns: Found 48 space group operations
 (whereof 48 operations were pure point group operations)
 out of a pool of 48 trial point group operations.

The static configuration has the point symmetry O_h .

Analysis of symmetry for dynamics (positions and initial velocities):
 Subroutine PRICEL returns following result:

  LATTYP: Found a body centered cubic cell.
 ALAT       =     4.1958606731

  Lattice vectors:

 A1 = (   2.0979303366,   2.0979303366,   2.0979303366)
 A2 = (   2.0979303366,  -2.0979303366,  -2.0979303366)
 A3 = (  -2.0979303366,   2.0979303366,  -2.0979303366)

   2 primitive cells build up your supercell.

 Routine SETGRP: Setting up the symmetry group for a
 simple cubic supercell.

 Subroutine GETGRP returns: Found 48 space group operations
 (whereof 48 operations were pure point group operations)
 out of a pool of 48 trial point group operations.

The dynamic configuration has the point symmetry O_h .

 Subroutine INISYM returns: Found 48 space group operations
 (whereof 48 operations are pure point group operations),
 and found     2 'primitive' translations

 KPOINTS: KPOINTS created by Atomic Simulation Env

Automatic generation of k-mesh.
Space group operators:
 irot       det(A)        alpha          n_x          n_y          n_z        tau_x        tau_y        tau_z
    1     1.000000     0.000000     1.000000     0.000000     0.000000     0.000000     0.000000     0.000000
    2    -1.000000     0.000000     1.000000     0.000000     0.000000     0.000000     0.000000     0.000000
    3     1.000000   120.000000    -0.577350    -0.577350    -0.577350     0.000000     0.000000     0.000000
    4    -1.000000   120.000000    -0.577350    -0.577350    -0.577350     0.000000     0.000000     0.000000
    5     1.000000   120.000000     0.577350     0.577350     0.577350     0.000000     0.000000     0.000000
    6    -1.000000   120.000000     0.577350     0.577350     0.577350     0.000000     0.000000     0.000000
    7     1.000000    90.000000     0.000000     0.000000    -1.000000     0.000000     0.000000     0.000000
    8    -1.000000    90.000000     0.000000     0.000000    -1.000000     0.000000     0.000000     0.000000
    9     1.000000   180.000000     0.000000     0.707107     0.707107     0.000000     0.000000     0.000000
   10    -1.000000   180.000000     0.000000     0.707107     0.707107     0.000000     0.000000     0.000000
   11     1.000000    90.000000     0.000000     1.000000     0.000000     0.000000     0.000000     0.000000
   12    -1.000000    90.000000     0.000000     1.000000     0.000000     0.000000     0.000000     0.000000
   13     1.000000   180.000000     0.000000     0.000000     1.000000     0.000000     0.000000     0.000000
   14    -1.000000   180.000000     0.000000     0.000000     1.000000     0.000000     0.000000     0.000000
   15     1.000000   120.000000    -0.577350     0.577350     0.577350     0.000000     0.000000     0.000000
   16    -1.000000   120.000000    -0.577350     0.577350     0.577350     0.000000     0.000000     0.000000
   17     1.000000   120.000000    -0.577350     0.577350    -0.577350     0.000000     0.000000     0.000000
   18    -1.000000   120.000000    -0.577350     0.577350    -0.577350     0.000000     0.000000     0.000000
   19     1.000000    90.000000     0.000000     0.000000     1.000000     0.000000     0.000000     0.000000
   20    -1.000000    90.000000     0.000000     0.000000     1.000000     0.000000     0.000000     0.000000
   21     1.000000    90.000000    -1.000000     0.000000     0.000000     0.000000     0.000000     0.000000
   22    -1.000000    90.000000    -1.000000     0.000000     0.000000     0.000000     0.000000     0.000000
   23     1.000000   180.000000     0.707107     0.000000     0.707107     0.000000     0.000000     0.000000
   24    -1.000000   180.000000     0.707107     0.000000     0.707107     0.000000     0.000000     0.000000
   25     1.000000   120.000000     0.577350    -0.577350     0.577350     0.000000     0.000000     0.000000
   26    -1.000000   120.000000     0.577350    -0.577350     0.577350     0.000000     0.000000     0.000000
   27     1.000000   120.000000    -0.577350    -0.577350     0.577350     0.000000     0.000000     0.000000
   28    -1.000000   120.000000    -0.577350    -0.577350     0.577350     0.000000     0.000000     0.000000
   29     1.000000   180.000000     1.000000     0.000000     0.000000     0.000000     0.000000     0.000000
   30    -1.000000   180.000000     1.000000     0.000000     0.000000     0.000000     0.000000     0.000000
   31     1.000000    90.000000     0.000000    -1.000000     0.000000     0.000000     0.000000     0.000000
   32    -1.000000    90.000000     0.000000    -1.000000     0.000000     0.000000     0.000000     0.000000
   33     1.000000   180.000000     0.707107     0.707107     0.000000     0.000000     0.000000     0.000000
   34    -1.000000   180.000000     0.707107     0.707107     0.000000     0.000000     0.000000     0.000000
   35     1.000000    90.000000     1.000000     0.000000     0.000000     0.000000     0.000000     0.000000
   36    -1.000000    90.000000     1.000000     0.000000     0.000000     0.000000     0.000000     0.000000
   37     1.000000   120.000000     0.577350    -0.577350    -0.577350     0.000000     0.000000     0.000000
   38    -1.000000   120.000000     0.577350    -0.577350    -0.577350     0.000000     0.000000     0.000000
   39     1.000000   180.000000     0.000000     1.000000     0.000000     0.000000     0.000000     0.000000
   40    -1.000000   180.000000     0.000000     1.000000     0.000000     0.000000     0.000000     0.000000
   41     1.000000   120.000000     0.577350     0.577350    -0.577350     0.000000     0.000000     0.000000
   42    -1.000000   120.000000     0.577350     0.577350    -0.577350     0.000000     0.000000     0.000000
   43     1.000000   180.000000     0.000000    -0.707107     0.707107     0.000000     0.000000     0.000000
   44    -1.000000   180.000000     0.000000    -0.707107     0.707107     0.000000     0.000000     0.000000
   45     1.000000   180.000000     0.707107    -0.707107     0.000000     0.000000     0.000000     0.000000
   46    -1.000000   180.000000     0.707107    -0.707107     0.000000     0.000000     0.000000     0.000000
   47     1.000000   180.000000     0.707107     0.000000    -0.707107     0.000000     0.000000     0.000000
   48    -1.000000   180.000000     0.707107     0.000000    -0.707107     0.000000     0.000000     0.000000

 Subroutine IBZKPT returns following result:

 Found     20 irreducible k-points:

 Following reciprocal coordinates:
            Coordinates               Weight
  0.000000  0.000000  0.000000      1.000000
  0.142857  0.000000  0.000000      6.000000
  0.285714  0.000000  0.000000      6.000000
  0.428571  0.000000  0.000000      6.000000
  0.142857  0.142857  0.000000     12.000000
  0.285714  0.142857  0.000000     24.000000
  0.428571  0.142857  0.000000     24.000000
  0.285714  0.285714  0.000000     12.000000
  0.428571  0.285714  0.000000     24.000000
  0.428571  0.428571  0.000000     12.000000
  0.142857  0.142857  0.142857      8.000000
  0.285714  0.142857  0.142857     24.000000
  0.428571  0.142857  0.142857     24.000000
  0.285714  0.285714  0.142857     24.000000
  0.428571  0.285714  0.142857     48.000000
  0.428571  0.428571  0.142857     24.000000
  0.285714  0.285714  0.285714      8.000000
  0.428571  0.285714  0.285714     24.000000
  0.428571  0.428571  0.285714     24.000000
  0.428571  0.428571  0.428571      8.000000

 Following cartesian coordinates:
            Coordinates               Weight
  0.000000  0.000000  0.000000      1.000000
  0.034047  0.000000  0.000000      6.000000
  0.068094  0.000000  0.000000      6.000000
  0.102141  0.000000  0.000000      6.000000
  0.034047  0.034047  0.000000     12.000000
  0.068094  0.034047  0.000000     24.000000
  0.102141  0.034047  0.000000     24.000000
  0.068094  0.068094  0.000000     12.000000
  0.102141  0.068094  0.000000     24.000000
  0.102141  0.102141  0.000000     12.000000
  0.034047  0.034047  0.034047      8.000000
  0.068094  0.034047  0.034047     24.000000
  0.102141  0.034047  0.034047     24.000000
  0.068094  0.068094  0.034047     24.000000
  0.102141  0.068094  0.034047     48.000000
  0.102141  0.102141  0.034047     24.000000
  0.068094  0.068094  0.068094      8.000000
  0.102141  0.068094  0.068094     24.000000
  0.102141  0.102141  0.068094     24.000000
  0.102141  0.102141  0.102141      8.000000

 SYSTEM =  unknown system
 POSCAR =  Na

 Startparameter for this run:
   NWRITE =      2    write-flag & timer
   PREC   = normal    normal or accurate (medium, high low for compatibility)
   ISTART =      0    job   : 0-new  1-cont  2-samecut
   ICHARG =      2    charge: 1-file 2-atom 10-const
   ISPIN  =      1    spin polarized calculation?
   LNONCOLLINEAR =      F non collinear calculations
   LSORBIT =      F    spin-orbit coupling
   INIWAV =      1    electr: 0-lowe 1-rand  2-diag
   LASPH  =      F    aspherical Exc in radial PAW
   METAGGA=      F    non-selfconsistent MetaGGA calc.

 Electronic Relaxation 1
   ENCUT  =  400.0 eV  29.40 Ry    5.42 a.u.   6.84  6.84  6.84*2*pi/ulx,y,z
   ENINI  =  400.0     initial cutoff
   ENAUG  =  250.7 eV  augmentation charge cutoff
   NELM   =     60;   NELMIN=  4; NELMDL= -5     # of ELM steps
   EDIFF  = 0.1E-05   stopping-criterion for ELM
[...]
   TEBEG  =    0.0;   TEEND  =   0.0 temperature during run
   SMASS  =  -3.00    Nose mass-parameter (am)
   estimated Nose-frequenzy (Omega)   =  0.10E-29 period in steps =****** mass=  -0.402E-27a.u.
   SCALEE = 1.0000    scale energy and forces
   NPACO  =    256;   APACO  = 16.0  distance and # of slots for P.C.
   PSTRESS=    0.0 pullay stress

  Mass of Ions in am
   POMASS =  22.99
  Ionic Valenz
   ZVAL   =   1.00
  Atomic Wigner-Seitz radii
  virtual crystal weights
   VCA    =   1.00
   NELECT =       2.0000    total number of electrons
   NUPDOWN=      -1.0000    fix difference up-down

 DOS related values:
   EMIN   =  10.00;   EMAX   =-10.00  energy-range for DOS
   EFERMI =   0.00
   ISMEAR =     0;   SIGMA  =   0.10  broadening in eV -4-tet -1-fermi 0-gaus

 Electronic relaxation 2 (details)
   IALGO  =     38    algorithm
   LDIAG  =      T    sub-space diagonalisation (order eigenvalues)
   LSUBROT=      F    optimize rotation matrix (better conditioning)
   TURBO    =      0    0=normal 1=particle mesh
   IRESTART =      0    0=no restart 2=restart with 2 vectors
   NREBOOT  =      0    no. of reboots
   NMIN     =      0    reboot dimension
   EREF     =   0.00    reference energy to select bands
   IMIX   =      4    mixing-type and parameters
     AMIX     =   0.40;   BMIX     =  1.00
     AMIX_MAG =   1.60;   BMIX_MAG =  1.00
     AMIN     =   0.10
     WC   =   100.;   INIMIX=   1;  MIXPRE=   1;  MAXMIX= -45

 Intra band minimization:
   WEIMIN = 0.0010     energy-eigenvalue tresh-hold
   EBREAK =  0.31E-07  absolut break condition
   DEPER  =   0.30     relativ break condition

   TIME   =   0.40     timestep for ELM

  volume/ion in A,a.u.               =      36.93       249.25
  Fermi-wavevector in a.u.,A,eV,Ry     =   0.491583  0.928958  3.287904  0.241654
  Thomas-Fermi vector in A             =   1.495039

 Write flags
   LWAVE        =      F    write WAVECAR
   LDOWNSAMPLE  =      F    k-point downsampling of WAVECAR
   LCHARG       =      F    write CHGCAR
   LVTOT        =      F    write LOCPOT, total local potential
   LVHAR        =      F    write LOCPOT, Hartree potential only
   LELF         =      F    write electronic localiz. function (ELF)
   LORBIT       =      0    0 simple, 1 ext, 2 COOP (PROOUT), +10 PAW based schemes

 Dipole corrections
   LMONO  =      F    monopole corrections only (constant potential shift)
   LDIPOL =      F    correct potential (dipole corrections)
   IDIPOL =      0    1-x, 2-y, 3-z, 4-all directions
   EPSILON=  1.0000000 bulk dielectric constant

 Exchange correlation treatment:
   GGA     =    PE    GGA type
   VOSKOWN=      0    Vosko Wilk Nusair interpolation
   LHFCALC =     F    Hartree Fock is set to
   LHFONE  =     F    Hartree Fock one center treatment
   AEXX    =    0.0000 exact exchange contribution

 Linear response parameters
   LEPSILON=     F    determine dielectric tensor
   LRPA    =     F    only Hartree local field effects (RPA)
   LNABLA  =     F    use nabla operator in PAW spheres
   LVEL    =     F    velocity operator in full k-point grid
   LINTERFAST=   F  fast interpolation
   KINTER  =     0    interpolate to denser k-point grid
   CSHIFT  =0.1000    complex shift for real part using Kramers Kronig
   OMEGAMAX=  -1.0    maximum frequency
   DEG_THRESHOLD= 0.2000000E-02 threshold for treating states as degnerate
   RTIME   =   -0.100 relaxation time in fs
  (WPLASMAI=    0.000 imaginary part of plasma frequency in eV, 0.658/RTIME)
   DFIELD  = 0.0000000 0.0000000 0.0000000 field for delta impulse in time

 Orbital magnetization related:
   ORBITALMAG=     F  switch on orbital magnetization
   LCHIMAG   =     F  perturbation theory with respect to B field
   DQ        =  0.001000  dq finite difference perturbation B field
   LLRAUG    =     F  two centre corrections for induced B field

 conjugate gradient relaxation of ions
 charge density and potential will be updated during run
 non-spin polarized calculation
 Variant of blocked Davidson
 Davidson routine will perform the subspace rotation
 perform sub-space diagonalisation
    after iterative eigenvector-optimisation
 modified Broyden-mixing scheme, WC =      100.0
 initial mixing is a Kerker type mixing with AMIX =  0.4000 and BMIX =      1.0000
 Hartree-type preconditioning will be used
 using additional bands            7
 reciprocal scheme for non local part
 use partial core corrections
 calculate Harris-corrections to forces
   (improved forces if not selfconsistent)
 use gradient corrections
 use of overlap-Matrix (Vanderbilt PP)
 Gauss-broadening in eV      SIGMA  =   0.10

  energy-cutoff  :      400.00
  volume of cell :       73.87
      direct lattice vectors                 reciprocal lattice vectors
     4.195860673  0.000000000  0.000000000     0.238330125  0.000000000  0.000000000
     0.000000000  4.195860673  0.000000000     0.000000000  0.238330125  0.000000000
     0.000000000  0.000000000  4.195860673     0.000000000  0.000000000  0.238330125

  length of vectors
     4.195860673  4.195860673  4.195860673     0.238330125  0.238330125  0.238330125

 k-points in units of 2pi/SCALE and weight: KPOINTS created by Atomic Simulation Env
   0.00000000  0.00000000  0.00000000       0.003
   0.03404716  0.00000000  0.00000000       0.017
   0.06809432  0.00000000  0.00000000       0.017
   0.10214148  0.00000000  0.00000000       0.017
   0.03404716  0.03404716  0.00000000       0.035
   0.06809432  0.03404716  0.00000000       0.070
   0.10214148  0.03404716  0.00000000       0.070
   0.06809432  0.06809432  0.00000000       0.035
   0.10214148  0.06809432  0.00000000       0.070
   0.10214148  0.10214148  0.00000000       0.035
   0.03404716  0.03404716  0.03404716       0.023
   0.06809432  0.03404716  0.03404716       0.070
   0.10214148  0.03404716  0.03404716       0.070
   0.06809432  0.06809432  0.03404716       0.070
   0.10214148  0.06809432  0.03404716       0.140
   0.10214148  0.10214148  0.03404716       0.070
   0.06809432  0.06809432  0.06809432       0.023
   0.10214148  0.06809432  0.06809432       0.070
   0.10214148  0.10214148  0.06809432       0.070
   0.10214148  0.10214148  0.10214148       0.023

 k-points in reciprocal lattice and weights: KPOINTS created by Atomic Simulation Env
   0.00000000  0.00000000  0.00000000       0.003
   0.14285714  0.00000000  0.00000000       0.017
   0.28571429  0.00000000  0.00000000       0.017
   0.42857143  0.00000000  0.00000000       0.017
   0.14285714  0.14285714  0.00000000       0.035
   0.28571429  0.14285714  0.00000000       0.070
   0.42857143  0.14285714  0.00000000       0.070
   0.28571429  0.28571429  0.00000000       0.035
   0.42857143  0.28571429  0.00000000       0.070
   0.42857143  0.42857143  0.00000000       0.035
   0.14285714  0.14285714  0.14285714       0.023
   0.28571429  0.14285714  0.14285714       0.070
   0.42857143  0.14285714  0.14285714       0.070
   0.28571429  0.28571429  0.14285714       0.070
   0.42857143  0.28571429  0.14285714       0.140
   0.42857143  0.42857143  0.14285714       0.070
   0.28571429  0.28571429  0.28571429       0.023
   0.42857143  0.28571429  0.28571429       0.070
   0.42857143  0.42857143  0.28571429       0.070
   0.42857143  0.42857143  0.42857143       0.023

 position of ions in fractional coordinates (direct lattice)
   0.00000000  0.00000000  0.00000000
   0.50000000  0.50000000  0.50000000

 position of ions in cartesian coordinates  (Angst):
   0.00000000  0.00000000  0.00000000
   2.09793034  2.09793034  2.09793034

 k-point  1 :   0.0000 0.0000 0.0000  plane waves:    1357
 k-point  2 :   0.1429 0.0000 0.0000  plane waves:    1341
 k-point  3 :   0.2857 0.0000 0.0000  plane waves:    1334
 k-point  4 :   0.4286 0.0000 0.0000  plane waves:    1342
 k-point  5 :   0.1429 0.1429 0.0000  plane waves:    1337
 k-point  6 :   0.2857 0.1429 0.0000  plane waves:    1344
 k-point  7 :   0.4286 0.1429 0.0000  plane waves:    1342
 k-point  8 :   0.2857 0.2857 0.0000  plane waves:    1338
 k-point  9 :   0.4286 0.2857 0.0000  plane waves:    1335
 k-point 10 :   0.4286 0.4286 0.0000  plane waves:    1340
 k-point 11 :   0.1429 0.1429 0.1429  plane waves:    1331
 k-point 12 :   0.2857 0.1429 0.1429  plane waves:    1342
 k-point 13 :   0.4286 0.1429 0.1429  plane waves:    1342
 k-point 14 :   0.2857 0.2857 0.1429  plane waves:    1340
 k-point 15 :   0.4286 0.2857 0.1429  plane waves:    1344
 k-point 16 :   0.4286 0.4286 0.1429  plane waves:    1351
 k-point 17 :   0.2857 0.2857 0.2857  plane waves:    1349
 k-point 18 :   0.4286 0.2857 0.2857  plane waves:    1347
 k-point 19 :   0.4286 0.4286 0.2857  plane waves:    1351
 k-point 20 :   0.4286 0.4286 0.4286  plane waves:    1352

 maximum and minimum number of plane-waves per node :       350      320

 maximum number of plane-waves:      1357
 maximum index in each direction:
   IXMAX=    6   IYMAX=    6   IZMAX=    6
   IXMIN=   -7   IYMIN=   -7   IZMIN=   -7

 parallel 3D FFT for wavefunctions:
    minimum data exchange during FFTs selected (reduces bandwidth)
 parallel 3D FFT for charge:
    minimum data exchange during FFTs selected (reduces bandwidth)

 Broyden mixing: mesh for mixing (old mesh)
   NGX = 13   NGY = 13   NGZ = 13
  (NGX  = 48   NGY  = 48   NGZ  = 48)
  gives a total of   2197 points

 initial charge density was supplied:
 charge density of overlapping atoms calculated
 number of electron       2.0000000 magnetization
 keeping initial charge density in first step

 Maximum index for augmentation-charges          634 (set IRDMAX)

 First call to EWALD:  gamma=   0.422
 Maximum number of real-space cells 3x 3x 3
 Maximum number of reciprocal cells 3x 3x 3

--------------------------------------- Iteration      1(   1)  ---------------------------------------

 eigenvalue-minimisations  :   320
 total energy-change (2. order) :-0.1999772E+01  (-0.2961001E+02)
 number of electron       2.0000000 magnetization
 augmentation part        2.0000000 magnetization

 Free energy of the ion-electron system (eV)
  alpha Z        PSCENC =        -0.99181013
  Ewald energy   TEWEN  =       -12.48949655
  -Hartree energ DENC   =        -0.00658665
  -exchange      EXHF   =         0.00000000
  -V(xc)+E(xc)   XCENC  =       -73.14092642
  PAW double counting   =        79.75229217       -4.73530507
  entropy T*S    EENTRO =        -0.00157738
  eigenvalues    EBANDS =        -0.70246074
  atomic energy  EATOM  =        10.31609890
  Solvation  Ediel_sol  =         0.00000000
  free energy    TOTEN  =        -1.99977188 eV

  energy without entropy =       -1.99819450  energy(sigma->0) =       -1.99898319

[...]

 eigenvalue-minimisations  :   440
 total energy-change (2. order) :-0.5891804E-06  (-0.5890873E-06)
 number of electron       2.0000000 magnetization
 augmentation part        0.0148279 magnetization

 Broyden mixing:
  rms(total) = 0.29271E-01    rms(broyden)= 0.29271E-01
  rms(prec ) = 0.89784E-01
  weight for this iteration     100.00

[...]

 eigenvalue-minimisations  :   424
 total energy-change (2. order) : 0.1149650E-03  (-0.9702873E-05)
 number of electron       2.0000000 magnetization
 augmentation part        0.0148307 magnetization

[...]

 eigenvalues of (default mixing * dielectric matrix)
  average eigenvalue GAMMA=   3.0081
  3.0081

[...]

 Broyden mixing:
  rms(total) = 0.23655E-03    rms(broyden)= 0.23655E-03
  rms(prec ) = 0.53911E-03
  weight for this iteration     100.00

 eigenvalues of (default mixing * dielectric matrix)
  average eigenvalue GAMMA=   2.2495
  1.0656  3.0645  2.6184

[...]

--------------------------------------- Iteration      1(   9)  ---------------------------------------

 eigenvalue-minimisations  :   424
 total energy-change (2. order) : 0.4734946E-06  (-0.3671923E-07)
 number of electron       2.0000000 magnetization
 augmentation part        0.0148548 magnetization

 Free energy of the ion-electron system (eV)
  alpha Z        PSCENC =        -0.99181013
  Ewald energy   TEWEN  =       -12.48949655
  -Hartree energ DENC   =        -0.03095181
  -exchange      EXHF   =         0.00000000
  -V(xc)+E(xc)   XCENC  =       -73.01680859
  PAW double counting   =        78.90935632       -3.89739805
  entropy T*S    EENTRO =        -0.00470274
  eigenvalues    EBANDS =        -1.40145563
  atomic energy  EATOM  =        10.31609890
  Solvation  Ediel_sol  =         0.00000000
  free energy    TOTEN  =        -2.60716828 eV

  energy without entropy =       -2.60246554  energy(sigma->0) =       -2.60481691

 average (electrostatic) potential at core
  the test charge radii are     1.1212
  (the norm of the test charge is              1.0000)
       1 -43.8691       2 -43.8691

 E-fermi :   0.5519     XC(G=0):  -6.2636     alpha+bet : -4.9742

 k-point     1 :       0.0000    0.0000    0.0000
  band No.  band energies     occupation
      1      -2.6960      2.00000
      2       5.1134      0.00000
      3       5.1134      0.00000
      4       5.4858      0.00000
      5       5.4858      0.00000
      6       5.4858      0.00000
      7       8.3074      0.00000
      8      12.3456      0.00000

[...]

 k-point    20 :       0.4286    0.4286    0.4286
  band No.  band energies     occupation
      1       1.9335      0.00000
      2       2.8657      0.00000
      3       2.8657      0.00000
      4       3.7305      0.00000
      5       3.9918      0.00000
      6       3.9918      0.00000
      7       5.4546      0.00000
      8       5.9111      0.00000

 soft charge-density along one line, spin component           1
         0         1         2         3         4         5         6         7         8         9
 total charge-density along one line

------------------------ aborting loop because EDIFF is reached ----------------------------------------

  FORCE on cell =-STRESS in cart. coord.  units (eV):
  Direction    XX          YY          ZZ          XY          YZ          ZX
  Alpha Z    -0.99181    -0.99181    -0.99181
  Ewald      -4.16317    -4.16317    -4.16317     0.00000    -0.00000    -0.00000
  Hartree     0.01032     0.01032     0.01032    -0.00000    -0.00000    -0.00000
  E(xc)      -3.77266    -3.77266    -3.77266     0.00000     0.00000     0.00000
  Local       0.83441     0.83441     0.83441     0.00000     0.00000     0.00000
  n-local     4.82043     4.78728     4.76540     0.03255     0.00959     0.01103
  augment     0.18174     0.18174     0.18174     0.00000     0.00000     0.00000
  Kinetic     5.93737     2.26636     1.12352     1.90944     0.71045     0.82617
  Fock        0.00000     0.00000     0.00000     0.00000     0.00000     0.00000
  Total      -0.00105    -0.00105    -0.00105     0.00000     0.00000     0.00000
  in kB      -0.02267    -0.02267    -0.02267     0.00000     0.00000     0.00000

 VOLUME and BASIS-vectors are now :
  energy-cutoff  :      400.00
  volume of cell :       73.87
      direct lattice vectors                 reciprocal lattice vectors
     4.195860673  0.000000000  0.000000000     0.238330125  0.000000000  0.000000000
     0.000000000  4.195860673  0.000000000     0.000000000  0.238330125  0.000000000
     0.000000000  0.000000000  4.195860673     0.000000000  0.000000000  0.238330125

  length of vectors
     4.195860673  4.195860673  4.195860673     0.238330125  0.238330125  0.238330125

 FORCES acting on ions
    electron-ion (+dipol)            ewald-force                    non-local-force                 convergence-correction
   -.201E-10 -.201E-10 -.201E-10   0.280E-08 0.280E-08 0.280E-08   -.258E-25 0.000E+00 -.207E-24   -.134E-11 -.134E-11 -.134E-11
   0.123E-07 0.123E-07 0.123E-07   -.280E-08 -.280E-08 -.280E-08   0.207E-24 0.207E-24 0.207E-24   0.138E-11 0.138E-11 0.138E-11
   0.123E-07 0.123E-07 0.123E-07   0.108E-16 -.997E-17 0.131E-16   0.181E-24 0.207E-24 0.000E+00   0.377E-13 0.377E-13 0.377E-13

 POSITION                                       TOTAL-FORCE (eV/Angst)
      0.00000      0.00000      0.00000        -0.000000     -0.000000     -0.000000
      2.09793      2.09793      2.09793         0.000000      0.000000      0.000000
    total drift:                                0.000000      0.000000      0.000000

  FREE ENERGIE OF THE ION-ELECTRON SYSTEM (eV)
  free  energy   TOTEN  =        -2.60716828 eV

  energy  without entropy=       -2.60246554  energy(sigma->0) =       -2.60481691

 stress matrix after NEB project (eV)
     -0.00105      0.00000      0.00000
      0.00000     -0.00105      0.00000
     -0.00000      0.00000     -0.00105
  FORCES: max atom, RMS     0.000000    0.000000
  FORCE total and by dimension    0.000000    0.000000
  Stress total and by dimension    0.001811    0.001045

 reached required accuracy - stopping structural energy minimisation