 vasp.5.4.4.18Apr17-6-g9f103f2a35 (build Apr 13 2025 12:23:30) complex

 executed on             LinuxIFC date 2025.04.17  14:57:41

 INCAR:
 POTCAR:    PAW_PBE Co 02Aug2007
 POTCAR:    PAW_PBE O 08Apr2002
 POTCAR:    PAW_PBE Co 02Aug2007
   VRHFIN =Co: d8 s1

   TITEL  = PAW_PBE Co 02Aug2007
   POMASS =   58.933; ZVAL   =    9.000    mass and valenz
   ENMAX  =  267.968; ENMIN  =  200.976 eV

   TITEL  = PAW_PBE O 08Apr2002
   POMASS =   16.000; ZVAL   =    6.000    mass and valenz
   ENMAX  =  400.000; ENMIN  =  300.000 eV

  PAW_PBE Co 02Aug2007                  :
  PAW_PBE O 08Apr2002                   :

 POSCAR: Co O
  positions in cartesian coordinates
 exchange correlation table for  LEXCH =        8
   RHO(1)=    0.500       N(1)  =     2000
   RHO(2)=  100.500       N(2)  =     4000

 VTST: version 3.2, (02/03/18)

 CHAIN: initializing optimizer

 OPT: Using VASP Conjugate-Gradient optimizer
 CHAIN: Read ICHAIN            0

 POSCAR: Co O
  positions in cartesian coordinates

 ion  position               nearest neighbor table
   1  0.000  0.000  0.000-   3 2.15   3 2.15   3 2.15   3 2.15   4 2.15   4 2.15   2 3.03   2 3.03
                             2 3.03   2 3.03   2 3.03   2 3.03   2 3.03   2 3.03
   2  0.500  0.500  1.000-   4 2.15   4 2.15   4 2.15   4 2.15   3 2.15   3 2.15   1 3.03   1 3.03
                             1 3.03   1 3.03   1 3.03   1 3.03   1 3.03   1 3.03
   3  1.000  0.500  0.500-   1 2.15   1 2.15   1 2.15   1 2.15   2 2.15   2 2.15
   4  0.500  0.000  0.500-   2 2.15   2 2.15   2 2.15   2 2.15   1 2.15   1 2.15

  LATTYP: Found a simple monoclinic cell.
 ALAT       =     5.2567393825
 B/A-ratio  =     0.5772895335
 C/A-ratio  =     1.4142069745
 COS(beta)  =    -0.9428183433

  Lattice vectors:

 A1 = (  -1.7243926216,   0.0000000000,  -4.9658613575)
 A2 = (   0.0000000000,  -3.0346606259,   0.0000000000)
 A3 = (  -0.0415316812,   0.0000000000,   7.4340014856)

Analysis of symmetry for initial positions (statically):
 Subroutine PRICEL returns following result:

  LATTYP: Found a base centered monoclinic cell.
 ALAT       =     5.2563244641
 B/A-ratio  =     0.5773351030
 C/A-ratio  =     0.8165326115
 COS(beta)  =    -0.7071007656

[...]

   2 primitive cells build up your supercell.

 Routine SETGRP: Setting up the symmetry group for a
 simple monoclinic supercell.

 Subroutine GETGRP returns: Found  4 space group operations
 (whereof  4 operations were pure point group operations)
 out of a pool of  4 trial point group operations.

The static configuration has the point symmetry C_2h.

Analysis of symmetry for dynamics (positions and initial velocities):
 Subroutine PRICEL returns following result:

  LATTYP: Found a base centered monoclinic cell.
 ALAT       =     5.2563244641
 B/A-ratio  =     0.5773351030
 C/A-ratio  =     0.8165326115
 COS(beta)  =    -0.7071007656

  Lattice vectors:

 A1 = (   2.6281206132,   1.5173303129,   0.0147905513)
 A2 = (   2.6281206132,  -1.5173303129,   0.0147905513)
 A3 = (  -3.4903169236,   0.0000000000,  -2.4977212307)

   2 primitive cells build up your supercell.

 Routine SETGRP: Setting up the symmetry group for a
 simple monoclinic supercell.

 Subroutine GETGRP returns: Found  4 space group operations
 (whereof  4 operations were pure point group operations)
 out of a pool of  4 trial point group operations.

The dynamic configuration has the point symmetry C_2h.

 Subroutine INISYM returns: Found  4 space group operations
 (whereof  4 operations are pure point group operations),
 and found     2 'primitive' translations

 KPOINTS: KPOINTS created by Atomic Simulation Env

Automatic generation of k-mesh.
Space group operators:
 irot       det(A)        alpha          n_x          n_y          n_z        tau_x        tau_y        tau_z
    1     1.000000     0.000000     1.000000     0.000000     0.000000     0.000000     0.000000     0.000000
    2    -1.000000     0.000000     1.000000     0.000000     0.000000     0.000000     0.000000     0.000000
    3     1.000000   180.000000     0.000000     1.000000     0.000000     0.000000     0.000000     0.000000
    4    -1.000000   180.000000     0.000000     1.000000     0.000000     0.000000     0.000000     0.000000

 Subroutine IBZKPT returns following result:

 Found    192 irreducible k-points:

 Following reciprocal coordinates:
            Coordinates               Weight
  0.000000  0.000000  0.000000      1.000000
  0.166667  0.000000 -0.000000      2.000000
  0.333333  0.000000 -0.000000      2.000000
  0.500000  0.000000 -0.000000      1.000000
  0.000000  0.100000  0.000000      2.000000
  0.166667  0.100000 -0.000000      4.000000
  0.333333  0.100000 -0.000000      4.000000
  0.500000  0.100000 -0.000000      2.000000
  0.000000  0.200000  0.000000      2.000000
  0.166667  0.200000 -0.000000      4.000000
  0.333333  0.200000 -0.000000      4.000000
  0.500000  0.200000 -0.000000      2.000000
  0.000000  0.300000  0.000000      2.000000
  0.166667  0.300000 -0.000000      4.000000
  0.333333  0.300000 -0.000000      4.000000
  0.500000  0.300000 -0.000000      2.000000
  0.000000  0.400000  0.000000      2.000000
  0.166667  0.400000 -0.000000      4.000000
  0.333333  0.400000 -0.000000      4.000000
  0.500000  0.400000 -0.000000      2.000000
  0.000000  0.500000  0.000000      1.000000
  0.166667  0.500000 -0.000000      2.000000
  0.333333  0.500000 -0.000000      2.000000
  0.500000  0.500000 -0.000000      1.000000
  0.000000  0.000000  0.100000      2.000000
  0.166667  0.000000  0.100000      2.000000
  0.333333  0.000000  0.100000      2.000000
  0.500000  0.000000  0.100000      2.000000
 -0.333333  0.000000  0.100000      2.000000
 -0.166667  0.000000  0.100000      2.000000
  0.000000  0.100000  0.100000      4.000000
  0.166667  0.100000  0.100000      4.000000
  0.333333  0.100000  0.100000      4.000000
  0.500000  0.100000  0.100000      4.000000
 -0.333333  0.100000  0.100000      4.000000
 -0.166667  0.100000  0.100000      4.000000
  0.000000  0.200000  0.100000      4.000000
  0.166667  0.200000  0.100000      4.000000
  0.333333  0.200000  0.100000      4.000000
  0.500000  0.200000  0.100000      4.000000
 -0.333333  0.200000  0.100000      4.000000
 -0.166667  0.200000  0.100000      4.000000
  0.000000  0.300000  0.100000      4.000000
  0.166667  0.300000  0.100000      4.000000
  0.333333  0.300000  0.100000      4.000000
  0.500000  0.300000  0.100000      4.000000
 -0.333333  0.300000  0.100000      4.000000
 -0.166667  0.300000  0.100000      4.000000
  0.000000  0.400000  0.100000      4.000000
  0.166667  0.400000  0.100000      4.000000
  0.333333  0.400000  0.100000      4.000000
  0.500000  0.400000  0.100000      4.000000
 -0.333333  0.400000  0.100000      4.000000
 -0.166667  0.400000  0.100000      4.000000
  0.000000  0.500000  0.100000      2.000000
  0.166667  0.500000  0.100000      2.000000
  0.333333  0.500000  0.100000      2.000000
  0.500000  0.500000  0.100000      2.000000
 -0.333333  0.500000  0.100000      2.000000
 -0.166667  0.500000  0.100000      2.000000
[...]
  0.166667  0.200000  0.500000      4.000000
  0.333333  0.200000  0.500000      4.000000
  0.500000  0.200000  0.500000      2.000000
 -0.000000  0.300000  0.500000      2.000000
  0.166667  0.300000  0.500000      4.000000
  0.333333  0.300000  0.500000      4.000000
  0.500000  0.300000  0.500000      2.000000
 -0.000000  0.400000  0.500000      2.000000
  0.166667  0.400000  0.500000      4.000000
  0.333333  0.400000  0.500000      4.000000
  0.500000  0.400000  0.500000      2.000000
 -0.000000  0.500000  0.500000      1.000000
  0.166667  0.500000  0.500000      2.000000
  0.333333  0.500000  0.500000      2.000000
  0.500000  0.500000  0.500000      1.000000

 Following cartesian coordinates:
            Coordinates               Weight
  0.000000  0.000000  0.000000      1.000000
  0.031581  0.000000  0.022596      2.000000
  0.063162  0.000000  0.045192      2.000000
  0.094744  0.000000  0.067788      1.000000
  0.000000  0.032953  0.000000      2.000000
  0.031581  0.032953  0.022596      4.000000
  0.063162  0.032953  0.045192      4.000000
  0.094744  0.032953  0.067788      2.000000
  0.000000  0.065905  0.000000      2.000000
  0.031581  0.065905  0.022596      4.000000
  0.063162  0.065905  0.045192      4.000000
  0.094744  0.065905  0.067788      2.000000
  0.000000  0.098858  0.000000      2.000000
  0.031581  0.098858  0.022596      4.000000
  0.063162  0.098858  0.045192      4.000000
  0.094744  0.098858  0.067788      2.000000
  0.000000  0.131810  0.000000      2.000000
  0.031581  0.131810  0.022596      4.000000
  0.063162  0.131810  0.045192      4.000000
  0.094744  0.131810  0.067788      2.000000
  0.000000  0.164763  0.000000      1.000000
  0.031581  0.164763  0.022596      2.000000
  0.063162  0.164763  0.045192      2.000000
  0.094744  0.164763  0.067788      1.000000
 -0.000227  0.000000  0.040354      2.000000
  0.031354  0.000000  0.062950      2.000000
  0.062935  0.000000  0.085546      2.000000
  0.094516  0.000000  0.108142      2.000000
 -0.063389  0.000000 -0.004838      2.000000
 -0.031808  0.000000  0.017758      2.000000
 -0.000227  0.032953  0.040354      4.000000
  0.031354  0.032953  0.062950      4.000000
  0.062935  0.032953  0.085546      4.000000
  0.094516  0.032953  0.108142      4.000000
 -0.063389  0.032953 -0.004838      4.000000
 -0.031808  0.032953  0.017758      4.000000
 -0.000227  0.065905  0.040354      4.000000
  0.031354  0.065905  0.062950      4.000000
  0.062935  0.065905  0.085546      4.000000
  0.094516  0.065905  0.108142      4.000000
 -0.063389  0.065905 -0.004838      4.000000
 -0.031808  0.065905  0.017758      4.000000
 -0.000227  0.098858  0.040354      4.000000
  0.031354  0.098858  0.062950      4.000000
  0.062935  0.098858  0.085546      4.000000
  0.094516  0.098858  0.108142      4.000000
 -0.063389  0.098858 -0.004838      4.000000
 -0.031808  0.098858  0.017758      4.000000
 -0.000227  0.131810  0.040354      4.000000
  0.031354  0.131810  0.062950      4.000000
  0.062935  0.131810  0.085546      4.000000
  0.094516  0.131810  0.108142      4.000000
 -0.063389  0.131810 -0.004838      4.000000
 -0.031808  0.131810  0.017758      4.000000
 -0.000227  0.164763  0.040354      2.000000
  0.031354  0.164763  0.062950      2.000000
  0.062935  0.164763  0.085546      2.000000
  0.094516  0.164763  0.108142      2.000000
 -0.063389  0.164763 -0.004838      2.000000
 -0.031808  0.164763  0.017758      2.000000
[...]
  0.030446  0.065905  0.224365      4.000000
  0.062027  0.065905  0.246961      4.000000
  0.093608  0.065905  0.269557      2.000000
 -0.001136  0.098858  0.201769      2.000000
  0.030446  0.098858  0.224365      4.000000
  0.062027  0.098858  0.246961      4.000000
  0.093608  0.098858  0.269557      2.000000
 -0.001136  0.131810  0.201769      2.000000
  0.030446  0.131810  0.224365      4.000000
  0.062027  0.131810  0.246961      4.000000
  0.093608  0.131810  0.269557      2.000000
 -0.001136  0.164763  0.201769      1.000000
  0.030446  0.164763  0.224365      2.000000
  0.062027  0.164763  0.246961      2.000000
[...]
 k-point ** :   0.0000 0.0000 0.4000  plane waves:     717
 k-point ** :   0.1667 0.0000 0.4000  plane waves:     716
 k-point ** :   0.3333 0.0000 0.4000  plane waves:     719
 k-point ** :   0.5000 0.0000 0.4000  plane waves:     716
 k-point ** :  -0.3333 0.0000 0.4000  plane waves:     723
 k-point ** :  -0.1667 0.0000 0.4000  plane waves:     723
 k-point ** :   0.0000 0.1000 0.4000  plane waves:     720
 k-point ** :   0.1667 0.1000 0.4000  plane waves:     721
 k-point ** :   0.3333 0.1000 0.4000  plane waves:     725
 k-point ** :   0.5000 0.1000 0.4000  plane waves:     721
 k-point ** :  -0.3333 0.1000 0.4000  plane waves:     720
 k-point ** :  -0.1667 0.1000 0.4000  plane waves:     725
 k-point ** :   0.0000 0.2000 0.4000  plane waves:     730
 k-point ** :   0.1667 0.2000 0.4000  plane waves:     725
 k-point ** :   0.3333 0.2000 0.4000  plane waves:     723
 k-point ** :   0.5000 0.2000 0.4000  plane waves:     718
 k-point ** :  -0.3333 0.2000 0.4000  plane waves:     719
 k-point ** :  -0.1667 0.2000 0.4000  plane waves:     720
 k-point ** :   0.0000 0.3000 0.4000  plane waves:     728
 k-point ** :   0.1667 0.3000 0.4000  plane waves:     728
 k-point ** :   0.3333 0.3000 0.4000  plane waves:     719
 k-point ** :   0.5000 0.3000 0.4000  plane waves:     719
 k-point ** :  -0.3333 0.3000 0.4000  plane waves:     717
 k-point ** :  -0.1667 0.3000 0.4000  plane waves:     718
 k-point ** :   0.0000 0.4000 0.4000  plane waves:     725
 k-point ** :   0.1667 0.4000 0.4000  plane waves:     728
 k-point ** :   0.3333 0.4000 0.4000  plane waves:     717
[...]
 k-point ** :   0.1667 0.2000 0.5000  plane waves:     726
 k-point ** :   0.3333 0.2000 0.5000  plane waves:     722
 k-point ** :   0.5000 0.2000 0.5000  plane waves:     714
 k-point ** :  -0.0000 0.3000 0.5000  plane waves:     736
 k-point ** :   0.1667 0.3000 0.5000  plane waves:     724
 k-point ** :   0.3333 0.3000 0.5000  plane waves:     714
 k-point ** :   0.5000 0.3000 0.5000  plane waves:     714
 k-point ** :  -0.0000 0.4000 0.5000  plane waves:     732
 k-point ** :   0.1667 0.4000 0.5000  plane waves:     724
 k-point ** :   0.3333 0.4000 0.5000  plane waves:     722
 k-point ** :   0.5000 0.4000 0.5000  plane waves:     714
 k-point ** :  -0.0000 0.5000 0.5000  plane waves:     720
 k-point ** :   0.1667 0.5000 0.5000  plane waves:     720
 k-point ** :   0.3333 0.5000 0.5000  plane waves:     716
 k-point ** :   0.5000 0.5000 0.5000  plane waves:     684

 maximum and minimum number of plane-waves per node :       196      148

 maximum number of plane-waves:       738
 maximum index in each direction:
   IXMAX=    8   IYMAX=    4   IZMAX=    4
   IXMIN=   -9   IYMIN=   -5   IZMIN=   -5

 parallel 3D FFT for wavefunctions:
    minimum data exchange during FFTs selected (reduces bandwidth)
 parallel 3D FFT for charge:
    minimum data exchange during FFTs selected (reduces bandwidth)

 Broyden mixing: mesh for mixing (old mesh)
   NGX = 17   NGY =  9   NGZ =  9
  (NGX  = 56   NGY  = 32   NGZ  = 32)
  gives a total of   1377 points

 initial charge density was supplied:
 charge density of overlapping atoms calculated
 number of electron      30.0000000 magnetization
 keeping initial charge density in first step

 Maximum index for augmentation-charges          625 (set IRDMAX)

 First call to EWALD:  gamma=   0.520
 Maximum number of real-space cells 2x 3x 4
 Maximum number of reciprocal cells 4x 3x 3

--------------------------------------- Iteration      1(   1)  ---------------------------------------

 eigenvalue-minimisations  :  7768
 total energy-change (2. order) : 0.2224937E+03  (-0.1227096E+04)
 number of electron      30.0000000 magnetization
 augmentation part       30.0000000 magnetization

 Free energy of the ion-electron system (eV)
  alpha Z        PSCENC =       106.59363258
  Ewald energy   TEWEN  =     -2194.67412473
  -Hartree energ DENC   =      -484.38799309
  -exchange      EXHF   =         0.00000000
  -V(xc)+E(xc)   XCENC  =        87.54977597
  PAW double counting   =      2135.12151303    -2244.77877011
  entropy T*S    EENTRO =        -0.00970269
  eigenvalues    EBANDS =       325.83753957
  atomic energy  EATOM  =      2491.24186027
  Solvation  Ediel_sol  =         0.00000000
  free energy    TOTEN  =       222.49373081 eV

  energy without entropy =      222.50343350  energy(sigma->0) =      222.49858216

[...]

 eigenvalue-minimisations  :  7924
 total energy-change (2. order) :-0.2254889E+03  (-0.2108862E+03)
 number of electron      30.0000000 magnetization
 augmentation part       30.0000000 magnetization

[...]

 Broyden mixing:
  rms(total) = 0.16988E+01    rms(broyden)= 0.16967E+01
  rms(prec ) = 0.35535E+01
  weight for this iteration     100.00

[...]

 eigenvalues of (default mixing * dielectric matrix)
  average eigenvalue GAMMA=   0.3878
  0.3878

[...]

 average (electrostatic) potential at core
  the test charge radii are     1.0452  0.7215
  (the norm of the test charge is              1.0000)
       1 -80.8574       2 -80.8574       3 -69.4165       4 -69.4165

 E-fermi :   7.3603     XC(G=0): -12.2929     alpha+bet :-13.5211

 k-point     1 :       0.0000    0.0000    0.0000
  band No.  band energies     occupation
      1     -12.7340      2.00000
      2     -11.5823      2.00000
      3       0.7782      2.00000
      4       3.0586      2.00000
      5       3.0589      2.00000
      6       4.1619      2.00000
      7       4.1620      2.00000
      8       4.1635      2.00000
      9       5.1291      2.00000
     10       6.1342      2.00000
     11       6.1355      2.00000
     12       6.1360      2.00000
     13       6.3726      2.00000
     14       6.3747      2.00000
     15       6.7705      2.00000
     16       7.1656      1.99410
     17       7.2617      1.83704
     18       7.2622      1.83469
     19       8.6134      0.00000
     20      13.8110      0.00000

[...]

 soft charge-density along one line, spin component           1
         0         1         2         3         4         5         6         7         8         9
 total charge-density along one line

------------------------ aborting loop because EDIFF is reached ----------------------------------------

  FORCE on cell =-STRESS in cart. coord.  units (eV):
  Direction    XX          YY          ZZ          XY          YZ          ZX
  Alpha Z   106.59363   106.59363   106.59363
  Ewald    -731.60077  -731.54156  -731.53510    -0.00000    -0.00000    -0.04174
  Hartree   159.16238   159.14281   159.15345     0.00000    -0.00000     0.00425
  E(xc)    -150.23377  -150.23255  -150.23166    -0.00000     0.00000    -0.00033
  Local     -59.53423   -59.45894   -59.47157     0.00000     0.00000    -0.01302
  n-local   -70.22213   -70.22610   -70.22413    -0.72455     1.11620    -0.00662
  augment   328.82036   328.77556   328.76286     0.00000     0.00000     0.02386
  Kinetic   410.33339   410.26077   410.28140     5.30591    -8.05134     0.03031
  Fock        0.00000     0.00000     0.00000     0.00000     0.00000     0.00000
  Total      -6.68113    -6.68637    -6.67111     0.00000     0.00000    -0.00329
  in kB    -270.80708  -271.01963  -270.40092     0.00000     0.00000    -0.13341

 VOLUME and BASIS-vectors are now :
  energy-cutoff  :      400.00
  volume of cell :       39.53
      direct lattice vectors                 reciprocal lattice vectors
     5.256241227  0.000000000  0.029581101     0.189487027  0.000000000  0.135575668
     0.000000000  3.034660626  0.000000000     0.000000000  0.329526139  0.000000000
    -1.765924303  0.000000000  2.468140128    -0.002271036  0.000000000  0.403538483

[...]

 FORCES acting on ions
    electron-ion (+dipol)            ewald-force                    non-local-force                 convergence-correction
   0.512E-06 0.170E-06 0.393E-06   -.149E-05 -.850E-06 -.191E-05   0.000E+00 0.000E+00 0.000E+00   0.165E-07 0.294E-08 0.144E-07
   -.946E-06 -.479E-06 -.333E-06   0.196E-05 0.850E-06 0.580E-06   0.132E-22 0.000E+00 -.132E-22   -.167E-07 -.224E-08 -.110E-07
   -.963E-06 0.311E-05 0.495E-05   -.155E-05 0.753E-06 -.348E-06   0.000E+00 -.734E-23 0.000E+00   0.129E-07 -.325E-08 0.533E-08
   0.222E-05 0.404E-06 0.475E-05   0.108E-05 -.753E-06 0.168E-05   0.000E+00 0.000E+00 0.000E+00   -.132E-07 0.142E-08 -.114E-07
   0.823E-06 0.320E-05 0.976E-05   0.801E-15 -.360E-15 -.263E-14   0.132E-22 -.734E-23 -.132E-22   -.558E-09 -.113E-08 -.268E-08

 POSITION                                       TOTAL-FORCE (eV/Angst)
      0.00000      0.00000      0.00000         0.000000     -0.000000     -0.000000
      0.86220      1.51733      2.48293        -0.000000     -0.000000      0.000000
      4.37328      1.51733      1.26365        -0.000000      0.000000     -0.000000
      1.74516      0.00000      1.24886        -0.000000     -0.000000      0.000000
    total drift:                                0.000001      0.000003      0.000010

  FREE ENERGIE OF THE ION-ELECTRON SYSTEM (eV)
  free  energy   TOTEN  =       -24.92184250 eV

  energy  without entropy=      -24.86963030  energy(sigma->0) =      -24.89573640

 stress matrix after NEB project (eV)
     -6.68113      0.00000     -0.00329
      0.00000     -6.68637      0.00000
     -0.00329      0.00000     -6.67111
  FORCES: max atom, RMS     0.000000    0.000000
  FORCE total and by dimension    0.000000    0.000000
  Stress total and by dimension   11.569304    6.686374

[...]

 d Force = 0.0000000E+00[ 0.000E+00, 0.000E+00]  d Energy = 0.1575768E+00-0.158E+00
 d Force = 0.0000000E+00[ 0.000E+00, 0.000E+00]  d Ewald  = 0.1922933E+03-0.192E+03

 stress matrix after NEB project (eV)
      6.52216      0.00000     -0.04394
      0.00000      6.56205      0.00000
     -0.04394      0.00000      6.57074
  FORCES: max atom, RMS     0.000000    0.000000
  FORCE total and by dimension    0.000000    0.000000
  Stress total and by dimension   11.348014    6.570736
 Steepest descent step on ions:
 trial-energy change:   -0.157577  1 .order   -0.015458   -1.614305    1.583390
  (g-gl).g = 0.161E+01      g.g   = 0.161E+01  gl.gl    = 0.000E+00
 g(Force)  = 0.152E-44   g(Stress)= 0.161E+01 ortho     = 0.000E+00
 gamma     =   0.00000
 trial     =   1.00000
 opt step  =   0.57019  (harmonic =   0.50483) maximal distance =0.00000000
 next E    =   -25.408416   (d E  =  -0.48657)

[...]

 eigenvalue-minimisations  :  9580
 total energy-change (2. order) :-0.2824787E+01  (-0.6078595E+01)
 number of electron      30.0000015 magnetization
 augmentation part       12.4784320 magnetization

[...]

 Broyden mixing:
  rms(total) = 0.10977E-02    rms(broyden)= 0.10930E-02
  rms(prec ) = 0.18735E-02
  weight for this iteration     100.00

 eigenvalues of (default mixing * dielectric matrix)
  average eigenvalue GAMMA=   1.4117
  2.6887  2.4325  0.5319  1.2238  1.0624  1.0624  0.8805

[...]

--------------------------------------- Iteration      3(   9)  ---------------------------------------

 eigenvalue-minimisations  :  5532
 total energy-change (2. order) : 0.9680443E-06  (-0.1762235E-06)
 number of electron      30.0000014 magnetization
 augmentation part       11.7956147 magnetization

 Free energy of the ion-electron system (eV)
  alpha Z        PSCENC =       122.74281138
  Ewald energy   TEWEN  =     -2300.33795612
  -Hartree energ DENC   =      -433.14603181
  -exchange      EXHF   =         0.00000000
  -V(xc)+E(xc)   XCENC  =        89.48368793
  PAW double counting   =      2770.07854464    -2881.53579709
  entropy T*S    EENTRO =        -0.03080265
  eigenvalues    EBANDS =       116.08147110
  atomic energy  EATOM  =      2491.24186027
  Solvation  Ediel_sol  =         0.00000000
  free energy    TOTEN  =       -25.42221234 eV

  energy without entropy =      -25.39140968  energy(sigma->0) =      -25.40681101

 average (electrostatic) potential at core
  the test charge radii are     1.0452  0.7215
  (the norm of the test charge is              1.0000)
       1 -78.9528       2 -78.9528       3 -67.8724       4 -67.8724

 E-fermi :   9.4817     XC(G=0): -13.1181     alpha+bet :-15.5696

[...]

 k-point   192 :       0.5000    0.5000    0.5000
  band No.  band energies     occupation
      1     -10.4629      2.00000
      2     -10.4629      2.00000
      3       1.7127      2.00000
      4       1.7127      2.00000
      5       4.3622      2.00000
      6       4.3622      2.00000
      7       4.3642      2.00000
      8       4.3642      2.00000
      9       6.5294      2.00000
     10       6.5294      2.00000
     11       8.7027      2.00000
     12       8.7027      2.00000
     13       9.3070      1.98651
     14       9.3070      1.98651
     15       9.3078      1.98605
     16       9.3078      1.98605
     17       9.3829      1.83785
     18       9.3829      1.83785
     19      16.8557      0.00000
     20      16.8557      0.00000

 soft charge-density along one line, spin component           1
         0         1         2         3         4         5         6         7         8         9
 total charge-density along one line

------------------------ aborting loop because EDIFF is reached ----------------------------------------

  FORCE on cell =-STRESS in cart. coord.  units (eV):
  Direction    XX          YY          ZZ          XY          YZ          ZX
  Alpha Z   122.74281   122.74281   122.74281
  Ewald    -766.81687  -766.79625  -766.72829    -0.00000     0.00000    -0.03649
  Hartree   144.39645   144.37496   144.39810     0.00000    -0.00000    -0.00105
  E(xc)    -151.89685  -151.89719  -151.89490    -0.00000     0.00000     0.00010
  Local     -25.89712   -25.82236   -25.85085     0.00000     0.00000     0.00312
  n-local   -67.26754   -67.26952   -67.24955    -0.69633     1.02391    -0.01567
  augment   328.23955   328.24419   328.17850    -0.00000     0.00000     0.01658
  Kinetic   416.40812   416.35211   416.34524     5.15705    -7.87691     0.01288
  Fock        0.00000     0.00000     0.00000     0.00000     0.00000     0.00000
  Total      -0.09146    -0.07125    -0.05895     0.00000     0.00000    -0.02052
  in kB      -4.26882    -3.32568    -2.75140     0.00000     0.00000    -0.95785

 VOLUME and BASIS-vectors are now :
  energy-cutoff  :      400.00
  volume of cell :       34.33
      direct lattice vectors                 reciprocal lattice vectors
     5.014742593  0.000000000  0.028105067     0.198615637  0.000000000  0.142099114
     0.000000000  2.895123730  0.000000000     0.000000000  0.345408381  0.000000000
    -1.684844788  0.000000000  2.354951494    -0.002370370  0.000000000  0.422941321

  length of vectors
     5.014821350  2.895123730  2.895599851     0.244213696  0.345408381  0.422947963

 FORCES acting on ions
    electron-ion (+dipol)            ewald-force                    non-local-force                 convergence-correction
   0.565E-06 0.189E-06 0.438E-06   -.164E-05 -.934E-06 -.210E-05   0.424E-23 0.000E+00 -.207E-24   0.211E-09 0.156E-10 0.133E-09
   -.111E-05 -.580E-06 -.378E-06   0.215E-05 0.934E-06 0.637E-06   0.662E-23 0.000E+00 0.000E+00   -.219E-09 -.254E-10 -.148E-09
   -.781E-06 0.285E-05 0.466E-05   -.170E-05 0.827E-06 -.382E-06   0.000E+00 0.000E+00 0.265E-22   0.185E-09 -.760E-10 0.373E-10
   0.200E-05 0.443E-06 0.431E-05   0.118E-05 -.827E-06 0.185E-05   0.397E-22 0.000E+00 0.132E-22   -.193E-09 0.237E-10 -.214E-09
   0.678E-06 0.290E-05 0.902E-05   -.843E-15 0.210E-14 0.319E-14   0.506E-22 0.000E+00 0.395E-22   -.149E-10 -.620E-10 -.191E-09

 POSITION                                       TOTAL-FORCE (eV/Angst)
      0.00000     -0.00000     -0.00000        -0.000000      0.000000     -0.000000
      0.82253      1.44756      2.36900         0.000000      0.000000     -0.000000
      4.17232      1.44756      1.20558         0.000000     -0.000000      0.000000
      1.66495     -0.00000      1.19153         0.000000      0.000000     -0.000000
    total drift:                                0.000001      0.000003      0.000009

  FREE ENERGIE OF THE ION-ELECTRON SYSTEM (eV)
  free  energy   TOTEN  =       -25.42221234 eV

  energy  without entropy=      -25.39140968  energy(sigma->0) =      -25.40681101

 d Force = 0.0000000E+00[ 0.000E+00, 0.000E+00]  d Energy = 0.3427930E+00-0.343E+00
 d Force = 0.0000000E+00[ 0.000E+00, 0.000E+00]  d Ewald  =-0.8662945E+02 0.866E+02

 stress matrix after NEB project (eV)
     -0.09146      0.00000     -0.02052
      0.00000     -0.07125      0.00000
     -0.02052      0.00000     -0.05895
  FORCES: max atom, RMS     0.000000    0.000000
  FORCE total and by dimension    0.000000    0.000000
  Stress total and by dimension    0.133264    0.091460

 reached required accuracy - stopping structural energy minimisation