 vasp.5.4.4.18Apr17-6-g9f103f2a35 (build Apr 13 2025 12:23:30) complex

 executed on             LinuxIFC date 2025.04.17  15:21:41

 INCAR:
 POTCAR:    PAW_PBE Co 02Aug2007
 POTCAR:    PAW_PBE Co 02Aug2007
   VRHFIN =Co: d8 s1

   TITEL  = PAW_PBE Co 02Aug2007
   POMASS =   58.933; ZVAL   =    9.000    mass and valenz
   ENMAX  =  267.968; ENMIN  =  200.976 eV

  PAW_PBE Co 02Aug2007                  :

 POSCAR: Co
  positions in cartesian coordinates
 exchange correlation table for  LEXCH =        8
   RHO(1)=    0.500       N(1)  =     2000
   RHO(2)=  100.500       N(2)  =     4000

 VTST: version 3.2, (02/03/18)

 CHAIN: initializing optimizer

 OPT: Using VASP Conjugate-Gradient optimizer
 CHAIN: Read ICHAIN            0

 POSCAR: Co
  positions in cartesian coordinates

 ion  position               nearest neighbor table
   1  0.000  0.000  0.000-   2 2.48   3 2.48   4 2.48   4 2.48   2 2.48   3 2.48   3 2.48   4 2.48
                             2 2.48   3 2.48   2 2.48   4 2.48
   2  0.000  0.500  0.500-   1 2.48   3 2.48   4 2.48   4 2.48   3 2.48   1 2.48   4 2.48   1 2.48
                             3 2.48   3 2.48   4 2.48   1 2.48
   3  0.500  0.000  0.500-   1 2.48   2 2.48   4 2.48   4 2.48   2 2.48   1 2.48   4 2.48   1 2.48
                             2 2.48   4 2.48   2 2.48   1 2.48
   4  0.500  0.500  0.000-   1 2.48   2 2.48   3 2.48   3 2.48   2 2.48   1 2.48   3 2.48   1 2.48
                             2 2.48   3 2.48   2 2.48   1 2.48

  LATTYP: Found a simple cubic cell.
 ALAT       =     3.5055191313

  Lattice vectors:

 A1 = (   3.5055191313,   0.0000000000,   0.0000000000)
 A2 = (   0.0000000000,   3.5055191313,   0.0000000000)
 A3 = (   0.0000000000,   0.0000000000,   3.5055191313)

Analysis of symmetry for initial positions (statically):
 Subroutine PRICEL returns following result:

  LATTYP: Found a face centered cubic cell.
 ALAT       =     3.5055191313

[...]

   4 primitive cells build up your supercell.

 Routine SETGRP: Setting up the symmetry group for a
 simple cubic supercell.

 Subroutine GETGRP returns: Found 48 space group operations
 (whereof 48 operations were pure point group operations)
 out of a pool of 48 trial point group operations.

The static configuration has the point symmetry O_h .

Analysis of symmetry for dynamics (positions and initial velocities):
 Subroutine PRICEL returns following result:

  LATTYP: Found a face centered cubic cell.
 ALAT       =     3.5055191313

  Lattice vectors:

 A1 = (   1.7527595657,   1.7527595657,   0.0000000000)
 A2 = (   1.7527595657,   0.0000000000,  -1.7527595657)
 A3 = (   0.0000000000,   1.7527595657,  -1.7527595657)

   4 primitive cells build up your supercell.

 Routine SETGRP: Setting up the symmetry group for a
 simple cubic supercell.

 Subroutine GETGRP returns: Found 48 space group operations
 (whereof 48 operations were pure point group operations)
 out of a pool of 48 trial point group operations.

The dynamic configuration has the point symmetry O_h .

 Subroutine INISYM returns: Found 48 space group operations
 (whereof 48 operations are pure point group operations),
 and found     4 'primitive' translations

 KPOINTS: KPOINTS created by Atomic Simulation Env

Automatic generation of k-mesh.
Space group operators:
 irot       det(A)        alpha          n_x          n_y          n_z        tau_x        tau_y        tau_z
    1     1.000000     0.000000     1.000000     0.000000     0.000000     0.000000     0.000000     0.000000
    2    -1.000000     0.000000     1.000000     0.000000     0.000000     0.000000     0.000000     0.000000
    3     1.000000   120.000000    -0.577350    -0.577350    -0.577350     0.000000     0.000000     0.000000
    4    -1.000000   120.000000    -0.577350    -0.577350    -0.577350     0.000000     0.000000     0.000000
    5     1.000000   120.000000     0.577350     0.577350     0.577350     0.000000     0.000000     0.000000
    6    -1.000000   120.000000     0.577350     0.577350     0.577350     0.000000     0.000000     0.000000
    7     1.000000    90.000000     0.000000     0.000000    -1.000000     0.000000     0.000000     0.000000
    8    -1.000000    90.000000     0.000000     0.000000    -1.000000     0.000000     0.000000     0.000000
    9     1.000000   180.000000     0.000000     0.707107     0.707107     0.000000     0.000000     0.000000
   10    -1.000000   180.000000     0.000000     0.707107     0.707107     0.000000     0.000000     0.000000
   11     1.000000    90.000000     0.000000     1.000000     0.000000     0.000000     0.000000     0.000000
   12    -1.000000    90.000000     0.000000     1.000000     0.000000     0.000000     0.000000     0.000000
   13     1.000000   180.000000     0.000000     0.000000     1.000000     0.000000     0.000000     0.000000
   14    -1.000000   180.000000     0.000000     0.000000     1.000000     0.000000     0.000000     0.000000
   15     1.000000   120.000000    -0.577350     0.577350     0.577350     0.000000     0.000000     0.000000
   16    -1.000000   120.000000    -0.577350     0.577350     0.577350     0.000000     0.000000     0.000000
   17     1.000000   120.000000    -0.577350     0.577350    -0.577350     0.000000     0.000000     0.000000
   18    -1.000000   120.000000    -0.577350     0.577350    -0.577350     0.000000     0.000000     0.000000
   19     1.000000    90.000000     0.000000     0.000000     1.000000     0.000000     0.000000     0.000000
   20    -1.000000    90.000000     0.000000     0.000000     1.000000     0.000000     0.000000     0.000000
   21     1.000000    90.000000    -1.000000     0.000000     0.000000     0.000000     0.000000     0.000000
   22    -1.000000    90.000000    -1.000000     0.000000     0.000000     0.000000     0.000000     0.000000
   23     1.000000   180.000000     0.707107     0.000000     0.707107     0.000000     0.000000     0.000000
   24    -1.000000   180.000000     0.707107     0.000000     0.707107     0.000000     0.000000     0.000000
   25     1.000000   120.000000     0.577350    -0.577350     0.577350     0.000000     0.000000     0.000000
   26    -1.000000   120.000000     0.577350    -0.577350     0.577350     0.000000     0.000000     0.000000
   27     1.000000   120.000000    -0.577350    -0.577350     0.577350     0.000000     0.000000     0.000000
   28    -1.000000   120.000000    -0.577350    -0.577350     0.577350     0.000000     0.000000     0.000000
   29     1.000000   180.000000     1.000000     0.000000     0.000000     0.000000     0.000000     0.000000
   30    -1.000000   180.000000     1.000000     0.000000     0.000000     0.000000     0.000000     0.000000
   31     1.000000    90.000000     0.000000    -1.000000     0.000000     0.000000     0.000000     0.000000
   32    -1.000000    90.000000     0.000000    -1.000000     0.000000     0.000000     0.000000     0.000000
   33     1.000000   180.000000     0.707107     0.707107     0.000000     0.000000     0.000000     0.000000
   34    -1.000000   180.000000     0.707107     0.707107     0.000000     0.000000     0.000000     0.000000
   35     1.000000    90.000000     1.000000     0.000000     0.000000     0.000000     0.000000     0.000000
   36    -1.000000    90.000000     1.000000     0.000000     0.000000     0.000000     0.000000     0.000000
   37     1.000000   120.000000     0.577350    -0.577350    -0.577350     0.000000     0.000000     0.000000
   38    -1.000000   120.000000     0.577350    -0.577350    -0.577350     0.000000     0.000000     0.000000
   39     1.000000   180.000000     0.000000     1.000000     0.000000     0.000000     0.000000     0.000000
   40    -1.000000   180.000000     0.000000     1.000000     0.000000     0.000000     0.000000     0.000000
   41     1.000000   120.000000     0.577350     0.577350    -0.577350     0.000000     0.000000     0.000000
   42    -1.000000   120.000000     0.577350     0.577350    -0.577350     0.000000     0.000000     0.000000
   43     1.000000   180.000000     0.000000    -0.707107     0.707107     0.000000     0.000000     0.000000
   44    -1.000000   180.000000     0.000000    -0.707107     0.707107     0.000000     0.000000     0.000000
   45     1.000000   180.000000     0.707107    -0.707107     0.000000     0.000000     0.000000     0.000000
   46    -1.000000   180.000000     0.707107    -0.707107     0.000000     0.000000     0.000000     0.000000
   47     1.000000   180.000000     0.707107     0.000000    -0.707107     0.000000     0.000000     0.000000
   48    -1.000000   180.000000     0.707107     0.000000    -0.707107     0.000000     0.000000     0.000000

 Subroutine IBZKPT returns following result:

 Found     35 irreducible k-points:

 Following reciprocal coordinates:
            Coordinates               Weight
  0.000000  0.000000  0.000000      1.000000
  0.111111  0.000000  0.000000      6.000000
  0.222222  0.000000  0.000000      6.000000
  0.333333  0.000000  0.000000      6.000000
  0.444444  0.000000  0.000000      6.000000
  0.111111  0.111111  0.000000     12.000000
  0.222222  0.111111  0.000000     24.000000
  0.333333  0.111111  0.000000     24.000000
  0.444444  0.111111  0.000000     24.000000
  0.222222  0.222222  0.000000     12.000000
  0.333333  0.222222  0.000000     24.000000
  0.444444  0.222222  0.000000     24.000000
  0.333333  0.333333  0.000000     12.000000
  0.444444  0.333333  0.000000     24.000000
  0.444444  0.444444  0.000000     12.000000
  0.111111  0.111111  0.111111      8.000000
  0.222222  0.111111  0.111111     24.000000
  0.333333  0.111111  0.111111     24.000000
  0.444444  0.111111  0.111111     24.000000
  0.222222  0.222222  0.111111     24.000000
  0.333333  0.222222  0.111111     48.000000
  0.444444  0.222222  0.111111     48.000000
  0.333333  0.333333  0.111111     24.000000
  0.444444  0.333333  0.111111     48.000000
  0.444444  0.444444  0.111111     24.000000
  0.222222  0.222222  0.222222      8.000000
  0.333333  0.222222  0.222222     24.000000
  0.444444  0.222222  0.222222     24.000000
  0.333333  0.333333  0.222222     24.000000
  0.444444  0.333333  0.222222     48.000000
  0.444444  0.444444  0.222222     24.000000
  0.333333  0.333333  0.333333      8.000000
  0.444444  0.333333  0.333333     24.000000
  0.444444  0.444444  0.333333     24.000000
  0.444444  0.444444  0.444444      8.000000

 Following cartesian coordinates:
            Coordinates               Weight
  0.000000  0.000000  0.000000      1.000000
  0.031696  0.000000  0.000000      6.000000
  0.063392  0.000000  0.000000      6.000000
  0.095088  0.000000  0.000000      6.000000
  0.126784  0.000000  0.000000      6.000000
  0.031696  0.031696  0.000000     12.000000
  0.063392  0.031696  0.000000     24.000000
  0.095088  0.031696  0.000000     24.000000
  0.126784  0.031696  0.000000     24.000000
  0.063392  0.063392  0.000000     12.000000
  0.095088  0.063392  0.000000     24.000000
  0.126784  0.063392  0.000000     24.000000
  0.095088  0.095088  0.000000     12.000000
  0.126784  0.095088  0.000000     24.000000
  0.126784  0.126784  0.000000     12.000000
[...]

 position of ions in cartesian coordinates  (Angst):
   0.00000000  0.00000000  0.00000000
   0.00000000  1.75275957  1.75275957
   1.75275957  0.00000000  1.75275957
   1.75275957  1.75275957  0.00000000

 k-point  1 :   0.0000 0.0000 0.0000  plane waves:     751
 k-point  2 :   0.1111 0.0000 0.0000  plane waves:     767
 k-point  3 :   0.2222 0.0000 0.0000  plane waves:     779
 k-point  4 :   0.3333 0.0000 0.0000  plane waves:     792
 k-point  5 :   0.4444 0.0000 0.0000  plane waves:     800
 k-point  6 :   0.1111 0.1111 0.0000  plane waves:     772
 k-point  7 :   0.2222 0.1111 0.0000  plane waves:     782
 k-point  8 :   0.3333 0.1111 0.0000  plane waves:     784
 k-point  9 :   0.4444 0.1111 0.0000  plane waves:     790
 k-point 10 :   0.2222 0.2222 0.0000  plane waves:     780
 k-point 11 :   0.3333 0.2222 0.0000  plane waves:     779
 k-point 12 :   0.4444 0.2222 0.0000  plane waves:     784
 k-point 13 :   0.3333 0.3333 0.0000  plane waves:     786
 k-point 14 :   0.4444 0.3333 0.0000  plane waves:     787
 k-point 15 :   0.4444 0.4444 0.0000  plane waves:     782
 k-point 16 :   0.1111 0.1111 0.1111  plane waves:     772
 k-point 17 :   0.2222 0.1111 0.1111  plane waves:     787
 k-point 18 :   0.3333 0.1111 0.1111  plane waves:     784
 k-point 19 :   0.4444 0.1111 0.1111  plane waves:     793
 k-point 20 :   0.2222 0.2222 0.1111  plane waves:     789
 k-point 21 :   0.3333 0.2222 0.1111  plane waves:     779
 k-point 22 :   0.4444 0.2222 0.1111  plane waves:     779
 k-point 23 :   0.3333 0.3333 0.1111  plane waves:     780
 k-point 24 :   0.4444 0.3333 0.1111  plane waves:     789
 k-point 25 :   0.4444 0.4444 0.1111  plane waves:     783
 k-point 26 :   0.2222 0.2222 0.2222  plane waves:     775
 k-point 27 :   0.3333 0.2222 0.2222  plane waves:     781
 k-point 28 :   0.4444 0.2222 0.2222  plane waves:     786
 k-point 29 :   0.3333 0.3333 0.2222  plane waves:     779
 k-point 30 :   0.4444 0.3333 0.2222  plane waves:     780
 k-point 31 :   0.4444 0.4444 0.2222  plane waves:     785
 k-point 32 :   0.3333 0.3333 0.3333  plane waves:     789
 k-point 33 :   0.4444 0.3333 0.3333  plane waves:     782
 k-point 34 :   0.4444 0.4444 0.3333  plane waves:     774
 k-point 35 :   0.4444 0.4444 0.4444  plane waves:     771

 maximum and minimum number of plane-waves per node :       205      182

 maximum number of plane-waves:       800
 maximum index in each direction:
   IXMAX=    5   IYMAX=    5   IZMAX=    5
   IXMIN=   -6   IYMIN=   -6   IZMIN=   -6

 parallel 3D FFT for wavefunctions:
    minimum data exchange during FFTs selected (reduces bandwidth)
 parallel 3D FFT for charge:
    minimum data exchange during FFTs selected (reduces bandwidth)

 Broyden mixing: mesh for mixing (old mesh)
   NGX = 11   NGY = 11   NGZ = 11
  (NGX  = 36   NGY  = 36   NGZ  = 36)
  gives a total of   1331 points

 initial charge density was supplied:
 charge density of overlapping atoms calculated
 number of electron      36.0000000 magnetization
 keeping initial charge density in first step

 Maximum index for augmentation-charges          662 (set IRDMAX)

 First call to EWALD:  gamma=   0.506
 Maximum number of real-space cells 3x 3x 3
 Maximum number of reciprocal cells 3x 3x 3

--------------------------------------- Iteration      1(   1)  ---------------------------------------

 eigenvalue-minimisations  :  1680
 total energy-change (2. order) : 0.2099380E+03  (-0.1339894E+04)
 number of electron      36.0000000 magnetization
 augmentation part       36.0000000 magnetization

 Free energy of the ion-electron system (eV)
  alpha Z        PSCENC =       157.32409228
  Ewald energy   TEWEN  =     -3051.01979992
  -Hartree energ DENC   =      -596.73769630
  -exchange      EXHF   =         0.00000000
  -V(xc)+E(xc)   XCENC  =        67.00658909
  PAW double counting   =      2884.04511851    -3096.16494999
  entropy T*S    EENTRO =        -0.02269344
  eigenvalues    EBANDS =       592.07640767
  atomic energy  EATOM  =      3253.43093640
  Solvation  Ediel_sol  =         0.00000000
  free energy    TOTEN  =       209.93800431 eV

  energy without entropy =      209.96069774  energy(sigma->0) =      209.94935102

[...]

 eigenvalue-minimisations  :  1752
 total energy-change (2. order) :-0.2308338E+03  (-0.2214186E+03)
 number of electron      36.0000000 magnetization
 augmentation part       36.0000000 magnetization

[...]

 Broyden mixing:
  rms(total) = 0.20212E+01    rms(broyden)= 0.20208E+01
  rms(prec ) = 0.42099E+01
  weight for this iteration     100.00

[...]

 eigenvalues of (default mixing * dielectric matrix)
  average eigenvalue GAMMA=   0.8115
  0.8115

[...]

 average (electrostatic) potential at core
  the test charge radii are     1.0452
  (the norm of the test charge is              1.0000)
       1 -78.3203       2 -78.3203       3 -78.3203       4 -78.3203

 E-fermi :  10.2072     XC(G=0): -13.4676     alpha+bet :-17.8600

 k-point     1 :       0.0000    0.0000    0.0000
  band No.  band energies     occupation
      1       1.3960      2.00000
      2       5.6803      2.00000
      3       5.6803      2.00000
      4       5.6803      2.00000
      5       6.3018      2.00000
      6       6.3018      2.00000
      7       6.3018      2.00000
      8       8.3937      2.00000
      9       8.3937      2.00000
     10       8.3937      2.00000
     11       9.6787      2.00000
     12       9.6787      2.00000
     13      10.5129      0.00002
     14      10.5129      0.00002
     15      10.5129      0.00002
     16      10.7202      0.00000
     17      10.7202      0.00000
     18      10.7202      0.00000
     19      10.7202      0.00000
     20      10.7202      0.00000
     21      10.7202      0.00000
     22      12.9719      0.00000
     23      12.9719      0.00000
     24      12.9719      0.00000

[...]

 soft charge-density along one line, spin component           1
         0         1         2         3         4         5         6         7         8         9
 total charge-density along one line

------------------------ aborting loop because EDIFF is reached ----------------------------------------

  FORCE on cell =-STRESS in cart. coord.  units (eV):
  Direction    XX          YY          ZZ          XY          YZ          ZX
  Alpha Z   157.32409   157.32409   157.32409
  Ewald   -1017.00705 -1017.00705 -1017.00705    -0.00000     0.00000    -0.00000
  Hartree   175.26549   175.26549   175.26549    -0.00000    -0.00000    -0.00000
  E(xc)    -183.16616  -183.16616  -183.16616    -0.00000    -0.00000    -0.00000
  Local     -37.82922   -37.82922   -37.82922     0.00000     0.00000     0.00000
  n-local   -21.67765   -27.09262   -19.70368     5.33377     2.73259     2.96501
  augment   619.92124   619.92124   619.92124     0.00000    -0.00000    -0.00000
  Kinetic   317.51090   301.91862   296.39466     3.82118     6.58205     4.56767
  Fock        0.00000     0.00000     0.00000     0.00000     0.00000     0.00000
  Total      -3.04153    -3.04153    -3.04153     0.00000    -0.00000     0.00000
  in kB    -113.12174  -113.12174  -113.12174     0.00000    -0.00000     0.00000

 VOLUME and BASIS-vectors are now :
  energy-cutoff  :      400.00
  volume of cell :       43.08
      direct lattice vectors                 reciprocal lattice vectors
     3.505519131  0.000000000  0.000000000     0.285264454  0.000000000  0.000000000
     0.000000000  3.505519131  0.000000000     0.000000000  0.285264454  0.000000000
     0.000000000  0.000000000  3.505519131     0.000000000  0.000000000  0.285264454

[...]

 FORCES acting on ions
    electron-ion (+dipol)            ewald-force                    non-local-force                 convergence-correction
   -.114E-05 -.114E-05 -.114E-05   0.200E-05 0.200E-05 0.200E-05   -.822E-23 -.827E-24 0.993E-23   -.234E-08 -.234E-08 -.234E-08
   -.114E-05 0.126E-05 0.126E-05   0.200E-05 -.200E-05 -.200E-05   0.000E+00 0.000E+00 -.993E-23   -.234E-08 0.238E-08 0.238E-08
   0.126E-05 -.114E-05 0.126E-05   -.200E-05 0.200E-05 -.200E-05   -.993E-23 -.165E-23 -.993E-23   0.238E-08 -.234E-08 0.238E-08
   0.126E-05 0.126E-05 -.114E-05   -.200E-05 -.200E-05 0.200E-05   0.496E-23 0.827E-23 0.103E-22   0.238E-08 0.238E-08 -.234E-08
   0.238E-06 0.238E-06 0.238E-06   -.409E-15 -.105E-14 0.199E-14   -.132E-22 0.579E-23 0.414E-24   0.832E-10 0.832E-10 0.832E-10

 POSITION                                       TOTAL-FORCE (eV/Angst)
      0.00000      0.00000      0.00000         0.000000      0.000000     -0.000000
      0.00000      1.75276      1.75276         0.000000      0.000000      0.000000
      1.75276      0.00000      1.75276         0.000000      0.000000      0.000000
      1.75276      1.75276      0.00000         0.000000      0.000000     -0.000000
    total drift:                                0.000000      0.000000      0.000000

  FREE ENERGIE OF THE ION-ELECTRON SYSTEM (eV)
  free  energy   TOTEN  =       -27.30896536 eV

  energy  without entropy=      -27.26550121  energy(sigma->0) =      -27.28723329

 stress matrix after NEB project (eV)
     -3.04153      0.00000      0.00000
      0.00000     -3.04153      0.00000
      0.00000     -0.00000     -3.04153
  FORCES: max atom, RMS     0.000000    0.000000
  FORCE total and by dimension    0.000000    0.000000
  Stress total and by dimension    5.268089    3.041533

[...]

 d Force = 0.0000000E+00[ 0.000E+00, 0.000E+00]  d Energy =-0.5819550E-01 0.582E-01
 d Force = 0.0000000E+00[ 0.000E+00, 0.000E+00]  d Ewald  = 0.1161822E+03-0.116E+03

 stress matrix after NEB project (eV)
      4.48476      0.00000     -0.00000
      0.00000      4.48476     -0.00000
      0.00000      0.00000      4.48476
  FORCES: max atom, RMS     0.000000    0.000000
  FORCE total and by dimension    0.000000    0.000000
  Stress total and by dimension    7.767825    4.484756
 Steepest descent step on ions:
 trial-energy change:    0.058195  1 .order    0.079412   -0.334717    0.493542
  (g-gl).g = 0.335E+00      g.g   = 0.335E+00  gl.gl    = 0.000E+00
 g(Force)  = 0.297E-48   g(Stress)= 0.335E+00 ortho     = 0.000E+00
 gamma     =   0.00000
 trial     =   1.00000
 opt step  =   0.44203  (harmonic =   0.40412) maximal distance =0.00000000
 next E    =   -27.384775   (d E  =  -0.07581)

[...]

 eigenvalue-minimisations  :  1800
 total energy-change (2. order) :-0.1103128E-03  (-0.1625234E-04)
 number of electron      35.9999830 magnetization
 augmentation part       20.4586339 magnetization

 Broyden mixing:
  rms(total) = 0.20429E-02    rms(broyden)= 0.20427E-02
  rms(prec ) = 0.25596E-02
  weight for this iteration     100.00

 eigenvalues of (default mixing * dielectric matrix)
  average eigenvalue GAMMA=   1.5610
  2.6955  2.4446  0.7391  0.9630  0.9630

[...]

--------------------------------------- Iteration      3(   7)  ---------------------------------------

 eigenvalue-minimisations  :  2176
 total energy-change (2. order) : 0.8159691E-06  (-0.9675144E-06)
 number of electron      35.9999830 magnetization
 augmentation part       20.4586339 magnetization

 Free energy of the ion-electron system (eV)
  alpha Z        PSCENC =       165.23214046
  Ewald energy   TEWEN  =     -3101.30722414
  -Hartree energ DENC   =      -504.99297454
  -exchange      EXHF   =         0.00000000
  -V(xc)+E(xc)   XCENC  =        64.04676851
  PAW double counting   =      3672.00049874    -3883.03829712
  entropy T*S    EENTRO =        -0.03985530
  eigenvalues    EBANDS =       307.28156846
  atomic energy  EATOM  =      3253.43093640
  Solvation  Ediel_sol  =         0.00000000
  free energy    TOTEN  =       -27.38643852 eV

  energy without entropy =      -27.34658322  energy(sigma->0) =      -27.36651087

 average (electrostatic) potential at core
  the test charge radii are     1.0452
  (the norm of the test charge is              1.0000)
       1 -77.6459       2 -77.6459       3 -77.6459       4 -77.6459

 E-fermi :  10.9646     XC(G=0): -13.7600     alpha+bet :-18.7578

[...]

 k-point    35 :       0.4444    0.4444    0.4444
  band No.  band energies     occupation
      1       6.0234      2.00000
      2       6.1463      2.00000
      3       6.1463      2.00000
      4       6.1463      2.00000
      5       8.8870      2.00000
      6       8.8870      2.00000
      7       8.8870      2.00000
      8       8.9836      2.00000
      9       8.9836      2.00000
     10       9.0202      2.00000
     11       9.0202      2.00000
     12       9.0202      2.00000
     13      10.2055      2.00000
     14      10.2055      2.00000
     15      10.2055      2.00000
     16      10.4072      2.00000
     17      11.2402      0.00010
     18      11.2402      0.00010
     19      11.3017      0.00000
     20      11.3017      0.00000
     21      11.3017      0.00000
     22      11.9634      0.00000
     23      11.9634      0.00000
     24      11.9634      0.00000

 soft charge-density along one line, spin component           1
         0         1         2         3         4         5         6         7         8         9
 total charge-density along one line

------------------------ aborting loop because EDIFF is reached ----------------------------------------

  FORCE on cell =-STRESS in cart. coord.  units (eV):
  Direction    XX          YY          ZZ          XY          YZ          ZX
  Alpha Z   165.23214   165.23214   165.23214
  Ewald   -1033.76953 -1033.76953 -1033.76953     0.00000    -0.00000     0.00000
  Hartree   168.33051   168.33051   168.33051    -0.00000    -0.00000    -0.00000
  E(xc)    -183.95586  -183.95586  -183.95586    -0.00000    -0.00000     0.00000
  Local     -23.28939   -23.28939   -23.28939     0.00000     0.00000     0.00000
  n-local   -17.68882   -23.59412   -16.16029     5.55678     2.93105     3.13741
  augment   618.76183   618.76183   618.76183     0.00000     0.00000     0.00000
  Kinetic   320.22087   304.49782   298.71240     3.72695     6.52797     4.51638
  Fock        0.00000     0.00000     0.00000     0.00000     0.00000     0.00000
  Total      -0.02767    -0.02767    -0.02767     0.00000     0.00000    -0.00000
  in kB      -1.08091    -1.08091    -1.08091     0.00000     0.00000    -0.00000

 VOLUME and BASIS-vectors are now :
  energy-cutoff  :      400.00
  volume of cell :       41.02
      direct lattice vectors                 reciprocal lattice vectors
     3.448677447  0.000000000  0.000000000     0.289966231  0.000000000 -0.000000000
     0.000000000  3.448677447  0.000000000    -0.000000000  0.289966231  0.000000000
     0.000000000 -0.000000000  3.448677447    -0.000000000 -0.000000000  0.289966231

  length of vectors
     3.448677447  3.448677447  3.448677447     0.289966231  0.289966231  0.289966231

 FORCES acting on ions
    electron-ion (+dipol)            ewald-force                    non-local-force                 convergence-correction
   -.118E-05 -.118E-05 -.118E-05   0.207E-05 0.207E-05 0.207E-05   -.103E-24 -.104E-24 -.207E-24   -.333E-09 -.333E-09 -.333E-09
   -.118E-05 0.133E-05 0.133E-05   0.207E-05 -.207E-05 -.207E-05   -.104E-24 -.103E-24 -.620E-24   -.333E-09 0.392E-09 0.392E-09
   0.133E-05 -.118E-05 0.133E-05   -.207E-05 0.207E-05 -.207E-05   -.182E-27 0.546E-27 0.207E-24   0.392E-09 -.333E-09 0.392E-09
   0.133E-05 0.133E-05 -.118E-05   -.207E-05 -.207E-05 0.207E-05   0.168E-27 -.503E-27 -.207E-24   0.392E-09 0.392E-09 -.333E-09
   0.304E-06 0.304E-06 0.304E-06   0.144E-14 0.391E-16 0.590E-16   -.207E-24 -.207E-24 -.827E-24   0.119E-09 0.119E-09 0.119E-09

 POSITION                                       TOTAL-FORCE (eV/Angst)
     -0.00000      0.00000     -0.00000        -0.000000      0.000000     -0.000000
      0.00000      1.72434      1.72434         0.000000     -0.000000      0.000000
      1.72434     -0.00000      1.72434         0.000000     -0.000000      0.000000
      1.72434      1.72434      0.00000        -0.000000      0.000000     -0.000000
    total drift:                                0.000000      0.000000      0.000000

  FREE ENERGIE OF THE ION-ELECTRON SYSTEM (eV)
  free  energy   TOTEN  =       -27.38643852 eV

  energy  without entropy=      -27.34658322  energy(sigma->0) =      -27.36651087

 d Force = 0.0000000E+00[ 0.000E+00, 0.000E+00]  d Energy = 0.1356687E+00-0.136E+00
 d Force = 0.0000000E+00[ 0.000E+00, 0.000E+00]  d Ewald  =-0.6589474E+02 0.659E+02

 stress matrix after NEB project (eV)
     -0.02767     -0.00000     -0.00000
      0.00000     -0.02767     -0.00000
      0.00000      0.00000     -0.02767
  FORCES: max atom, RMS     0.000000    0.000000
  FORCE total and by dimension    0.000000    0.000000
  Stress total and by dimension    0.047929    0.027672

 reached required accuracy - stopping structural energy minimisation