 vasp.5.4.4.18Apr17-6-g9f103f2a35 (build Apr 13 2025 12:23:30) complex

 executed on             LinuxIFC date 2025.04.17  14:57:41

 INCAR:
 POTCAR:    PAW_PBE Co 02Aug2007
 POTCAR:    PAW_PBE O 08Apr2002
 POTCAR:    PAW_PBE H 15Jun2001
 POTCAR:    PAW_PBE Co 02Aug2007
   VRHFIN =Co: d8 s1

   TITEL  = PAW_PBE Co 02Aug2007
   POMASS =   58.933; ZVAL   =    9.000    mass and valenz
   ENMAX  =  267.968; ENMIN  =  200.976 eV

   TITEL  = PAW_PBE O 08Apr2002
   POMASS =   16.000; ZVAL   =    6.000    mass and valenz
   ENMAX  =  400.000; ENMIN  =  300.000 eV

   TITEL  = PAW_PBE H 15Jun2001
   POMASS =    1.000; ZVAL   =    1.000    mass and valenz
   ENMAX  =  250.000; ENMIN  =  200.000 eV

  PAW_PBE Co 02Aug2007                  :
  PAW_PBE O 08Apr2002                   :
  PAW_PBE H 15Jun2001                   :

 POSCAR: Co O  H
  positions in cartesian coordinates
 exchange correlation table for  LEXCH =        8
   RHO(1)=    0.500       N(1)  =     2000
   RHO(2)=  100.500       N(2)  =     4000

 VTST: version 3.2, (02/03/18)

 CHAIN: initializing optimizer

 OPT: Using VASP Conjugate-Gradient optimizer
 CHAIN: Read ICHAIN            0

 POSCAR: Co O  H
  positions in cartesian coordinates

 ion  position               nearest neighbor table
   1  0.000  0.000  0.000-   2 2.13   3 2.13   3 2.13   3 2.13   2 2.13   2 2.13
   2  0.667  0.333  0.781-   4 0.97   1 2.13   1 2.13   1 2.13
   3  0.333  0.667  0.219-   5 0.97   1 2.13   1 2.13   1 2.13
   4  0.667  0.333  0.578-   2 0.97
   5  0.333  0.667  0.422-   3 0.97

  LATTYP: Found a base centered monoclinic cell.
 ALAT       =    13.5945525222
 B/A-ratio  =     0.4090843502
 C/A-ratio  =     0.5895941938
 COS(beta)  =    -0.9162573492

  Lattice vectors:

 A1 = (  -4.8162752708,   2.7806565924,   4.7965031623)
 A2 = (  -4.8162480225,  -2.7806620923,   4.7965335458)
 A3 = (   6.4216669837,  -0.0000051160,  -4.7965335458)

Analysis of symmetry for initial positions (statically):
 Subroutine PRICEL returns:
 Original cell was already a primitive cell.

 Routine SETGRP: Setting up the symmetry group for a
 base centered monoclinic supercell.

 Subroutine GETGRP returns: Found  2 space group operations
 (whereof  2 operations were pure point group operations)
 out of a pool of  4 trial point group operations.

The static configuration has the point symmetry S_2 .

Analysis of symmetry for dynamics (positions and initial velocities):
 Subroutine PRICEL returns:
 Original cell was already a primitive cell.

 Routine SETGRP: Setting up the symmetry group for a
 base centered monoclinic supercell.

 Subroutine GETGRP returns: Found  2 space group operations
 (whereof  2 operations were pure point group operations)
 out of a pool of  4 trial point group operations.

The dynamic configuration has the point symmetry S_2 .

 Subroutine INISYM returns: Found  2 space group operations
 (whereof  2 operations are pure point group operations),
 and found     1 'primitive' translations

 KPOINTS: KPOINTS created by Atomic Simulation Env

Automatic generation of k-mesh.
Space group operators:
 irot       det(A)        alpha          n_x          n_y          n_z        tau_x        tau_y        tau_z
    1     1.000000     0.000001     1.000000     0.000000     0.000000     0.000000     0.000000     0.000000
    2    -1.000000     0.000001     1.000000     0.000000     0.000000     0.000000     0.000000     0.000000

 Subroutine IBZKPT returns following result:

 Found    352 irreducible k-points:

 Following reciprocal coordinates:
            Coordinates               Weight
  0.000000  0.000000  0.000000      1.000000
  0.100000  0.000000  0.000000      2.000000
  0.200000 -0.000000  0.000000      2.000000
  0.300000  0.000000  0.000000      2.000000
  0.400000  0.000000  0.000000      2.000000
  0.500000  0.000000  0.000000      1.000000
 -0.000000  0.100000  0.000000      2.000000
  0.100000  0.100000  0.000000      2.000000
  0.200000  0.100000  0.000000      2.000000
  0.300000  0.100000  0.000000      2.000000
  0.400000  0.100000  0.000000      2.000000
  0.500000  0.100000  0.000000      2.000000
 -0.400000  0.100000 -0.000000      2.000000
 -0.300000  0.100000 -0.000000      2.000000
 -0.200000  0.100000 -0.000000      2.000000
 -0.100000  0.100000 -0.000000      2.000000
 -0.000000  0.200000  0.000000      2.000000
  0.100000  0.200000  0.000000      2.000000
  0.200000  0.200000  0.000000      2.000000
  0.300000  0.200000 -0.000000      2.000000
  0.400000  0.200000  0.000000      2.000000
  0.500000  0.200000  0.000000      2.000000
 -0.400000  0.200000 -0.000000      2.000000
 -0.300000  0.200000 -0.000000      2.000000
 -0.200000  0.200000 -0.000000      2.000000
 -0.100000  0.200000 -0.000000      2.000000
 -0.000000  0.300000  0.000000      2.000000
  0.100000  0.300000  0.000000      2.000000
  0.200000  0.300000  0.000000      2.000000
  0.300000  0.300000  0.000000      2.000000
  0.400000  0.300000  0.000000      2.000000
  0.500000  0.300000  0.000000      2.000000
 -0.400000  0.300000 -0.000000      2.000000
 -0.300000  0.300000 -0.000000      2.000000
 -0.200000  0.300000 -0.000000      2.000000
 -0.100000  0.300000 -0.000000      2.000000
 -0.000000  0.400000  0.000000      2.000000
  0.100000  0.400000  0.000000      2.000000
  0.200000  0.400000  0.000000      2.000000
  0.300000  0.400000  0.000000      2.000000
  0.400000  0.400000  0.000000      2.000000
  0.500000  0.400000  0.000000      2.000000
 -0.400000  0.400000 -0.000000      2.000000
 -0.300000  0.400000 -0.000000      2.000000
 -0.200000  0.400000 -0.000000      2.000000
 -0.100000  0.400000  0.000000      2.000000
 -0.000000  0.500000  0.000000      1.000000
  0.100000  0.500000  0.000000      2.000000
  0.200000  0.500000  0.000000      2.000000
  0.300000  0.500000  0.000000      2.000000
  0.400000  0.500000  0.000000      2.000000
  0.500000  0.500000  0.000000      1.000000
 -0.000000  0.000000  0.142857      2.000000
  0.100000  0.000000  0.142857      2.000000
  0.200000 -0.000000  0.142857      2.000000
  0.300000  0.000000  0.142857      2.000000
  0.400000  0.000000  0.142857      2.000000
  0.500000 -0.000000  0.142857      2.000000
 -0.400000  0.000000  0.142857      2.000000
 -0.300000  0.000000  0.142857      2.000000
[...]
  0.500000 -0.200000  0.428571      2.000000
 -0.400000 -0.200000  0.428571      2.000000
 -0.300000 -0.200000  0.428571      2.000000
 -0.200000 -0.200000  0.428571      2.000000
 -0.100000 -0.200000  0.428571      2.000000
 -0.000000 -0.100000  0.428571      2.000000
  0.100000 -0.100000  0.428571      2.000000
  0.200000 -0.100000  0.428571      2.000000
  0.300000 -0.100000  0.428571      2.000000
  0.400000 -0.100000  0.428571      2.000000
  0.500000 -0.100000  0.428571      2.000000
 -0.400000 -0.100000  0.428571      2.000000
 -0.300000 -0.100000  0.428571      2.000000
 -0.200000 -0.100000  0.428571      2.000000
 -0.100000 -0.100000  0.428571      2.000000

 Following cartesian coordinates:
            Coordinates               Weight
  0.000000  0.000000  0.000000      1.000000
  0.031145  0.017981  0.000000      2.000000
  0.062290  0.035963  0.000001      2.000000
  0.093435  0.053944  0.000001      2.000000
  0.124579  0.071926  0.000002      2.000000
  0.155724  0.089907  0.000002      1.000000
  0.000000  0.035963  0.000000      2.000000
  0.031145  0.053944  0.000001      2.000000
  0.062290  0.071926  0.000001      2.000000
  0.093435  0.089907  0.000001      2.000000
  0.124580  0.107889  0.000002      2.000000
  0.155725  0.125870  0.000002      2.000000
 -0.124579 -0.035963 -0.000001      2.000000
 -0.093434 -0.017982 -0.000001      2.000000
 -0.062290 -0.000000 -0.000001      2.000000
 -0.031145  0.017981 -0.000000      2.000000
  0.000000  0.071925  0.000000      2.000000
  0.031145  0.089907  0.000001      2.000000
  0.062290  0.107888  0.000001      2.000000
  0.093435  0.125870  0.000002      2.000000
  0.124580  0.143851  0.000002      2.000000
  0.155725  0.161833  0.000002      2.000000
 -0.124579 -0.000001 -0.000001      2.000000
 -0.093434  0.017981 -0.000001      2.000000
 -0.062289  0.035962 -0.000000      2.000000
 -0.031145  0.053944 -0.000000      2.000000
  0.000001  0.107888  0.000001      2.000000
  0.031145  0.125870  0.000001      2.000000
  0.062290  0.143851  0.000001      2.000000
  0.093435  0.161833  0.000002      2.000000
  0.124580  0.179814  0.000002      2.000000
  0.155725  0.197796  0.000003      2.000000
 -0.124579  0.035962 -0.000001      2.000000
 -0.093434  0.053944 -0.000001      2.000000
 -0.062289  0.071925 -0.000000      2.000000
 -0.031144  0.089907  0.000000      2.000000
  0.000001  0.143851  0.000001      2.000000
  0.031146  0.161832  0.000001      2.000000
  0.062290  0.179814  0.000002      2.000000
  0.093435  0.197795  0.000002      2.000000
  0.124580  0.215777  0.000002      2.000000
  0.155725  0.233758  0.000003      2.000000
 -0.124579  0.071925 -0.000001      2.000000
 -0.093434  0.089906 -0.000000      2.000000
 -0.062289  0.107888 -0.000000      2.000000
 -0.031144  0.125869  0.000000      2.000000
  0.000001  0.179813  0.000001      1.000000
  0.031146  0.197795  0.000001      2.000000
  0.062291  0.215776  0.000002      2.000000
  0.093435  0.233758  0.000002      2.000000
  0.124580  0.251739  0.000003      2.000000
  0.155725  0.269721  0.000003      1.000000
  0.000000  0.000000  0.029784      2.000000
  0.031145  0.017982  0.029784      2.000000
  0.062290  0.035963  0.029785      2.000000
  0.093435  0.053945  0.029785      2.000000
  0.124580  0.071926  0.029785      2.000000
  0.155725  0.089908  0.029786      2.000000
 -0.124579 -0.071926  0.029782      2.000000
 -0.093434 -0.053944  0.029783      2.000000
[...]
  0.155725  0.017983  0.089353      2.000000
 -0.124579 -0.143851  0.089349      2.000000
 -0.093434 -0.125869  0.089350      2.000000
 -0.062289 -0.107888  0.089350      2.000000
 -0.031144 -0.089906  0.089351      2.000000
  0.000001 -0.035962  0.089351      2.000000
  0.031146 -0.017981  0.089352      2.000000
  0.062290  0.000001  0.089352      2.000000
  0.093435  0.017982  0.089352      2.000000
  0.124580  0.035964  0.089353      2.000000
  0.155725  0.053945  0.089353      2.000000
 -0.124579 -0.107888  0.089350      2.000000
 -0.093434 -0.089907  0.089350      2.000000
 -0.062289 -0.071925  0.089350      2.000000
 -0.031144 -0.053944  0.089351      2.000000

 SYSTEM =  unknown system
 POSCAR =  Co O  H

 Startparameter for this run:
   NWRITE =      2    write-flag & timer
   PREC   = normal    normal or accurate (medium, high low for compatibility)
   ISTART =      0    job   : 0-new  1-cont  2-samecut
   ICHARG =      2    charge: 1-file 2-atom 10-const
   ISPIN  =      1    spin polarized calculation?
   LNONCOLLINEAR =      F non collinear calculations
   LSORBIT =      F    spin-orbit coupling
   INIWAV =      1    electr: 0-lowe 1-rand  2-diag
   LASPH  =      F    aspherical Exc in radial PAW
   METAGGA=      F    non-selfconsistent MetaGGA calc.

 Electronic Relaxation 1
   ENCUT  =  400.0 eV  29.40 Ry    5.42 a.u.   5.24  5.24  7.82*2*pi/ulx,y,z
   ENINI  =  400.0     initial cutoff
[...]
 k-point ** :   0.3000 0.0000 0.2857  plane waves:     776
 k-point ** :   0.4000-0.0000 0.2857  plane waves:     784
 k-point ** :   0.5000 0.0000 0.2857  plane waves:     790
 k-point ** :  -0.4000-0.0000 0.2857  plane waves:     784
[...]
 k-point ** :   0.5000-0.2000 0.4286  plane waves:     781
 k-point ** :  -0.4000-0.2000 0.4286  plane waves:     784
 k-point ** :  -0.3000-0.2000 0.4286  plane waves:     781
 k-point ** :  -0.2000-0.2000 0.4286  plane waves:     779
 k-point ** :  -0.1000-0.2000 0.4286  plane waves:     775
 k-point ** :  -0.0000-0.1000 0.4286  plane waves:     784
 k-point ** :   0.1000-0.1000 0.4286  plane waves:     784
 k-point ** :   0.2000-0.1000 0.4286  plane waves:     776
 k-point ** :   0.3000-0.1000 0.4286  plane waves:     775
 k-point ** :   0.4000-0.1000 0.4286  plane waves:     782
 k-point ** :   0.5000-0.1000 0.4286  plane waves:     786
 k-point ** :  -0.4000-0.1000 0.4286  plane waves:     786
 k-point ** :  -0.3000-0.1000 0.4286  plane waves:     782
 k-point ** :  -0.2000-0.1000 0.4286  plane waves:     775
 k-point ** :  -0.1000-0.1000 0.4286  plane waves:     776

 maximum and minimum number of plane-waves per node :       209      177

 maximum number of plane-waves:       790
 maximum index in each direction:
   IXMAX=    5   IYMAX=    5   IZMAX=    7
   IXMIN=   -5   IYMIN=   -5   IZMIN=   -8

 parallel 3D FFT for wavefunctions:
    minimum data exchange during FFTs selected (reduces bandwidth)
 parallel 3D FFT for charge:
    minimum data exchange during FFTs selected (reduces bandwidth)

 Broyden mixing: mesh for mixing (old mesh)
   NGX = 11   NGY = 11   NGZ = 15
  (NGX  = 32   NGY  = 32   NGZ  = 48)
  gives a total of   1815 points

 initial charge density was supplied:
 charge density of overlapping atoms calculated
 number of electron      23.0000000 magnetization
 keeping initial charge density in first step

 Maximum index for augmentation-charges          345 (set IRDMAX)

 First call to EWALD:  gamma=   0.507
 Maximum number of real-space cells 3x 3x 2
 Maximum number of reciprocal cells 3x 3x 4

--------------------------------------- Iteration      1(   1)  ---------------------------------------

 eigenvalue-minimisations  : 11336
 total energy-change (2. order) : 0.1399492E+03  (-0.9802062E+03)
 number of electron      23.0000000 magnetization
 augmentation part       23.0000000 magnetization

 Free energy of the ion-electron system (eV)
  alpha Z        PSCENC =        52.77110716
  Ewald energy   TEWEN  =     -1183.67192400
  -Hartree energ DENC   =      -526.86136938
  -exchange      EXHF   =         0.00000000
  -V(xc)+E(xc)   XCENC  =        76.32465376
  PAW double counting   =      1418.37828828    -1475.02334305
  entropy T*S    EENTRO =        -0.00872502
  eigenvalues    EBANDS =        75.19912916
  atomic energy  EATOM  =      1702.84139150
  Solvation  Ediel_sol  =         0.00000000
  free energy    TOTEN  =       139.94920842 eV

  energy without entropy =      139.95793344  energy(sigma->0) =      139.95357093

[...]

 eigenvalue-minimisations  : 13552
 total energy-change (2. order) :-0.1584304E+03  (-0.1531595E+03)
 number of electron      23.0000000 magnetization
 augmentation part       23.0000000 magnetization

[...]

 Broyden mixing:
  rms(total) = 0.15061E+01    rms(broyden)= 0.15042E+01
  rms(prec ) = 0.30115E+01
  weight for this iteration     100.00

[...]

 eigenvalues of (default mixing * dielectric matrix)
  average eigenvalue GAMMA=   0.3822
  0.3822

[...]

 average (electrostatic) potential at core
  the test charge radii are     1.0452  0.7215  0.5201
  (the norm of the test charge is              1.0000)
       1 -84.4363       2 -73.1909       3 -73.1909       4 -37.1991       5 -37.1991

 E-fermi :   4.0300     XC(G=0): -10.1337     alpha+bet : -9.2784

 k-point     1 :       0.0000    0.0000    0.0000
  band No.  band energies     occupation
      1     -17.5288      2.00000
      2     -16.4948      2.00000
      3      -6.0692      2.00000
      4      -2.6869      2.00000
      5      -1.1405      2.00000
      6      -1.1398      2.00000
      7       0.4859      2.00000
      8       0.4869      2.00000
      9       3.0250      2.00000
     10       3.0251      2.00000
     11       3.1217      2.00000
     12       4.5114      0.00000
     13       4.5119      0.00000
     14       4.8118      0.00000
     15       9.3529      0.00000
     16      12.4409      0.00000

[...]

 soft charge-density along one line, spin component           1
         0         1         2         3         4         5         6         7         8         9
 total charge-density along one line

------------------------ aborting loop because EDIFF is reached ----------------------------------------

  FORCE on cell =-STRESS in cart. coord.  units (eV):
  Direction    XX          YY          ZZ          XY          YZ          ZX
  Alpha Z    52.77111    52.77111    52.77111
  Ewald    -312.29548  -312.30156  -559.07577     0.00527    -0.02196    -0.03804
  Hartree   275.67910   275.67509    -1.62410     0.00293    -0.00727    -0.01083
  E(xc)    -111.43659  -111.43589  -110.91576     0.00043     0.00007    -0.00020
  Local    -383.42857  -383.41839   181.78519    -0.01268     0.02826     0.04077
  n-local   -65.54388   -65.54796   -66.88314    -0.00293     0.00014     0.00007
  augment   171.88297   171.87929   170.20470     0.00043    -0.00238     0.00046
  Kinetic   368.31471   368.30511   330.17737    -0.00588     0.00269     0.00872
  Fock        0.00000     0.00000     0.00000     0.00000     0.00000     0.00000
  Total      -4.05663    -4.07321    -3.56039    -0.01243    -0.00045     0.00095
  in kB    -151.77194  -152.39209  -133.20598    -0.46518    -0.01677     0.03552

 VOLUME and BASIS-vectors are now :
  energy-cutoff  :      400.00
  volume of cell :       42.82
      direct lattice vectors                 reciprocal lattice vectors
     3.210810674 -0.000015732 -0.000030383     0.311448706  0.179814994  0.000003951
    -1.605418961  2.780667208  0.000000000     0.000001762  0.359626936  0.000001975
    -0.000045636 -0.000026348  4.796472779     0.000001973  0.000001139  0.208486537

[...]

 FORCES acting on ions
    electron-ion (+dipol)            ewald-force                    non-local-force                 convergence-correction
   0.836E-07 -.150E-07 0.181E-08   -.787E-06 0.146E-06 0.956E-07   -.568E-23 -.484E-23 0.000E+00   -.498E-10 0.749E-11 -.305E-08
   0.711E-02 0.272E-02 0.154E+03   -.134E-01 -.772E-02 -.124E+03   0.620E-02 0.442E-02 -.277E+02   0.696E-04 0.116E-02 -.431E-02
   -.710E-02 -.272E-02 -.154E+03   0.134E-01 0.772E-02 0.124E+03   -.620E-02 -.442E-02 0.277E+02   -.696E-04 -.116E-02 0.431E-02
   -.117E-01 -.675E-02 0.788E+02   0.129E-01 0.743E-02 -.873E+02   -.149E-02 -.842E-03 0.815E+01   0.129E-05 0.242E-04 0.447E-03
   0.117E-01 0.675E-02 -.788E+02   -.129E-01 -.743E-02 0.873E+02   0.149E-02 0.842E-03 -.815E+01   -.129E-05 -.242E-04 -.447E-03
   0.856E-05 -.171E-05 0.674E-05   -.407E-14 -.239E-14 0.000E+00   0.000E+00 -.867E-18 0.000E+00   0.769E-09 -.150E-09 -.274E-08

 POSITION                                       TOTAL-FORCE (eV/Angst)
      0.00000      0.00000      0.00000         0.000000     -0.000000     -0.000000
      1.60533      0.92684      3.74818        -0.000005      0.000574      1.664395
      0.00001      1.85379      1.04826         0.000005     -0.000574     -1.664395
      1.60551      0.92694      2.77467        -0.000280     -0.000130     -0.361074
     -0.00016      1.85368      2.02177         0.000280      0.000130      0.361074
    total drift:                                0.000009     -0.000002      0.000007

  FREE ENERGIE OF THE ION-ELECTRON SYSTEM (eV)
  free  energy   TOTEN  =       -26.88370817 eV

  energy  without entropy=      -26.85173313  energy(sigma->0) =      -26.86772065

 stress matrix after NEB project (eV)
     -4.05663     -0.01243      0.00095
     -0.01243     -4.07321     -0.00045
      0.00095     -0.00045     -3.56039
  FORCES: max atom, RMS     1.664395    1.077142
  FORCE total and by dimension    2.408562    1.664395
  Stress total and by dimension    6.761948    4.073206

[...]

 E-fermi :   5.5963     XC(G=0): -10.7573     alpha+bet :-10.4090

[...]

 d Force =-0.3373235E-01[-0.338E+00, 0.270E+00]  d Energy = 0.2413208E+00-0.275E+00
 d Force =-0.2057044E+02[-0.248E+02,-0.163E+02]  d Ewald  = 0.2382039E+02-0.444E+02

 stress matrix after NEB project (eV)
      0.36362     -0.00562      0.00068
     -0.00562      0.35637      0.00048
      0.00068      0.00048     -3.54044
  FORCES: max atom, RMS     1.810511    1.567675
  FORCE total and by dimension    3.505428    1.810511
  Stress total and by dimension    3.576872    3.540442
 Steepest descent step on ions:
 trial-energy change:   -0.241321  1 .order   -0.232345   -0.721033    0.256342
  (g-gl).g = 0.721E+00      g.g   = 0.721E+00  gl.gl    = 0.000E+00
 g(Force)  = 0.280E+00   g(Stress)= 0.441E+00 ortho     = 0.000E+00
 gamma     =   0.00000
 trial     =   1.00000
 opt step  =   0.74811  (harmonic =   0.73772) maximal distance =0.06006913
 next E    =   -27.157171   (d E  =  -0.27346)

[...]

 d Force = 0.7027194E-01[ 0.517E-01, 0.889E-01]  d Energy = 0.3135025E-01 0.389E-01
 d Force = 0.6243163E+01[ 0.596E+01, 0.653E+01]  d Ewald  =-0.5247050E+01 0.115E+02

[...]

 d Force =-0.1213870E+00[-0.367E+00, 0.124E+00]  d Energy =-0.2813863E+00 0.160E+00
 d Force =-0.8134855E+01[-0.918E+01,-0.709E+01]  d Ewald  = 0.4486763E+02-0.530E+02

 stress matrix after NEB project (eV)
      3.28876     -0.00258     -0.00158
     -0.00258      3.28568      0.00079
     -0.00158      0.00079      9.01089
  FORCES: max atom, RMS     3.816655    3.086025
  FORCE total and by dimension    6.900561    3.816655
  Stress total and by dimension   10.139419    9.010892
 Conjugate gradient step on ions:
 trial-energy change:    0.281386  1 .order    0.338590   -0.390944    1.068125
  (g-gl).g = 0.414E+00      g.g   = 0.413E+00  gl.gl    = 0.721E+00
 g(Force)  = 0.255E+00   g(Stress)= 0.157E+00 ortho     =-0.166E-02
 gamma     =   0.57459
 trial     =   0.94962
 opt step  =   0.30297  (harmonic =   0.25444) maximal distance =0.01589176
 next E    =   -27.220602   (d E  =  -0.06422)

[...]

 eigenvalue-minimisations  : 14448
 total energy-change (2. order) : 0.3206663E-03  (-0.1380983E-03)
 number of electron      22.9999978 magnetization
 augmentation part        6.5529822 magnetization

[...]

 Broyden mixing:
  rms(total) = 0.33746E-03    rms(broyden)= 0.33567E-03
  rms(prec ) = 0.47216E-03
  weight for this iteration     100.00

 eigenvalues of (default mixing * dielectric matrix)
  average eigenvalue GAMMA=   1.3957
  2.7225  2.3815  0.4906  1.0408  1.0408  0.9011  1.1926

[...]

--------------------------------------- Iteration      5(   9)  ---------------------------------------

 eigenvalue-minimisations  :  9184
 total energy-change (2. order) :-0.1563119E-06  (-0.4194719E-07)
 number of electron      22.9999978 magnetization
 augmentation part        6.5529948 magnetization

 Free energy of the ion-electron system (eV)
  alpha Z        PSCENC =        59.61174905
  Ewald energy   TEWEN  =     -1216.62000277
  -Hartree energ DENC   =      -544.09536274
  -exchange      EXHF   =         0.00000000
  -V(xc)+E(xc)   XCENC  =        78.84624358
  PAW double counting   =      1937.93208290    -1995.61504383
  entropy T*S    EENTRO =        -0.02692260
  eigenvalues    EBANDS =       -50.09445893
  atomic energy  EATOM  =      1702.84139150
  Solvation  Ediel_sol  =         0.00000000
  free energy    TOTEN  =       -27.22032383 eV

  energy without entropy =      -27.19340123  energy(sigma->0) =      -27.20686253

 average (electrostatic) potential at core
  the test charge radii are     1.0452  0.7215  0.5201
  (the norm of the test charge is              1.0000)
       1 -83.1360       2 -72.3105       3 -72.3105       4 -36.1228       5 -36.1228

 E-fermi :   5.6559     XC(G=0): -10.7628     alpha+bet :-10.4812

[...]

 k-point   352 :      -0.1000   -0.1000    0.4286
  band No.  band energies     occupation
      1     -16.4271      2.00000
      2     -16.1009      2.00000
      3      -4.4599      2.00000
      4      -3.4463      2.00000
      5      -0.6168      2.00000
      6      -0.3605      2.00000
      7       0.4740      2.00000
      8       0.9026      2.00000
      9       4.3458      2.00000
     10       4.3820      2.00000
     11       4.6163      2.00000
     12       5.6534      1.02793
     13       6.2270      0.00000
     14       8.5604      0.00000
     15      12.0220      0.00000
     16      13.9106      0.00000

 soft charge-density along one line, spin component           1
         0         1         2         3         4         5         6         7         8         9
 total charge-density along one line

------------------------ aborting loop because EDIFF is reached ----------------------------------------

  FORCE on cell =-STRESS in cart. coord.  units (eV):
  Direction    XX          YY          ZZ          XY          YZ          ZX
  Alpha Z    59.61175    59.61175    59.61175
  Ewald    -285.09385  -285.01124  -646.51584     0.06125     0.06890    -0.14896
  Hartree   298.06833   298.10549   -52.08483     0.02694     0.03118    -0.05826
  E(xc)    -112.16727  -112.16695  -111.75749     0.00027     0.00022    -0.00058
  Local    -438.56067  -438.67916   309.59600    -0.08790    -0.09308     0.18519
  n-local   -62.95481   -62.95413   -64.18693     0.00022     0.00208    -0.00263
  augment   170.86103   170.85654   170.27094    -0.00274    -0.00538     0.00870
  Kinetic   370.59850   370.59301   334.58888    -0.00401    -0.00373     0.01686
  Fock        0.00000     0.00000     0.00000     0.00000     0.00000     0.00000
  Total       0.36299     0.35531    -0.47752    -0.00598     0.00018     0.00032
  in kB      15.34127    15.01652   -20.18139    -0.25273     0.00772     0.01360

 VOLUME and BASIS-vectors are now :
  energy-cutoff  :      400.00
  volume of cell :       37.91
      direct lattice vectors                 reciprocal lattice vectors
     3.087493496 -0.000434926  0.000007705     0.323913675  0.187074740  0.000000966
    -1.544123409  2.673598197 -0.000028874     0.000052692  0.374058213  0.000003545
     0.000011432 -0.000043523  4.592846742    -0.000000543  0.000002038  0.217729887

  length of vectors
     3.087493526  3.087465696  4.592846742     0.374054845  0.374058217  0.217729887

 FORCES acting on ions
    electron-ion (+dipol)            ewald-force                    non-local-force                 convergence-correction
   0.100E-06 -.180E-07 -.110E-07   -.938E-06 0.173E-06 0.226E-06   -.413E-23 -.210E-25 0.000E+00   0.596E-11 -.736E-12 -.184E-09
   -.383E-01 0.338E-01 0.187E+03   0.475E-01 -.447E-01 -.161E+03   -.815E-02 0.105E-01 -.263E+02   -.480E-03 0.278E-03 0.234E-02
   0.383E-01 -.338E-01 -.187E+03   -.475E-01 0.447E-01 0.161E+03   0.815E-02 -.105E-01 0.263E+02   0.480E-03 -.278E-03 -.234E-02
   -.682E-02 -.460E-02 0.779E+02   0.711E-02 0.522E-02 -.854E+02   -.109E-02 -.483E-03 0.771E+01   -.104E-04 0.606E-05 0.150E-03
   0.682E-02 0.460E-02 -.779E+02   -.711E-02 -.522E-02 0.854E+02   0.109E-02 0.483E-03 -.771E+01   0.104E-04 -.606E-05 -.150E-03
   0.801E-05 -.160E-05 0.654E-05   -.466E-14 0.951E-15 0.142E-13   -.217E-18 0.000E+00 0.000E+00   0.538E-10 -.121E-10 -.197E-09

 POSITION                                       TOTAL-FORCE (eV/Angst)
     -0.00000     -0.00000      0.00000         0.000000     -0.000000     -0.000000
      1.54361      0.89088      3.64554         0.000566     -0.000158     -0.131370
     -0.00023      1.78224      0.94728        -0.000566      0.000158      0.131370
      1.54374      0.89095      2.65828        -0.000824      0.000144      0.135046
     -0.00035      1.78217      1.93454         0.000824     -0.000144     -0.135046
    total drift:                                0.000008     -0.000002      0.000007

  FREE ENERGIE OF THE ION-ELECTRON SYSTEM (eV)
  free  energy   TOTEN  =       -27.22032383 eV

  energy  without entropy=      -27.19340123  energy(sigma->0) =      -27.20686253

 d Force = 0.1324064E+00[-0.976E-02, 0.275E+00]  d Energy = 0.3453309E+00-0.213E+00
 d Force = 0.6294329E+01[ 0.572E+01, 0.686E+01]  d Ewald  =-0.3049289E+02 0.368E+02

 stress matrix after NEB project (eV)
      0.36299     -0.00598      0.00032
     -0.00598      0.35531      0.00018
      0.00032      0.00018     -0.47752
  FORCES: max atom, RMS     0.135049    0.119158
  FORCE total and by dimension    0.266446    0.135046
  Stress total and by dimension    0.697212    0.477518

 reached required accuracy - stopping structural energy minimisation