 vasp.5.4.4.18Apr17-6-g9f103f2a35 (build Apr 13 2025 12:23:30) complex

 executed on             LinuxIFC date 2025.04.17  14:57:41

 INCAR:
 POTCAR:    PAW_PBE Co 02Aug2007
 POTCAR:    PAW_PBE O 08Apr2002
 POTCAR:    PAW_PBE Co 02Aug2007
   VRHFIN =Co: d8 s1

   TITEL  = PAW_PBE Co 02Aug2007
   POMASS =   58.933; ZVAL   =    9.000    mass and valenz
   ENMAX  =  267.968; ENMIN  =  200.976 eV

   TITEL  = PAW_PBE O 08Apr2002
   POMASS =   16.000; ZVAL   =    6.000    mass and valenz
   ENMAX  =  400.000; ENMIN  =  300.000 eV

  PAW_PBE Co 02Aug2007                  :
  PAW_PBE O 08Apr2002                   :

 POSCAR: Co O
  positions in cartesian coordinates
 exchange correlation table for  LEXCH =        8
   RHO(1)=    0.500       N(1)  =     2000
   RHO(2)=  100.500       N(2)  =     4000

 VTST: version 3.2, (02/03/18)

 CHAIN: initializing optimizer

 OPT: Using VASP Conjugate-Gradient optimizer
 CHAIN: Read ICHAIN            0

 POSCAR: Co O
  positions in cartesian coordinates

 ion  position               nearest neighbor table
   1  0.000  0.000  0.000-   6 2.15   7 2.15   8 2.15   8 2.15   7 2.15   6 2.15   2 3.03   3 3.03
                             4 3.03   2 3.03   4 3.03   3 3.03   3 3.03   4 3.03   2 3.03   2 3.03
   2  0.000  0.500  0.500-   5 2.15   7 2.15   8 2.15   7 2.15   8 2.15   5 2.15   3 3.03   4 3.03
                             1 3.03   3 3.03   1 3.03   1 3.03   3 3.03   4 3.03   4 3.03   1 3.03
   3  0.500  0.000  0.500-   5 2.15   6 2.15   8 2.15   6 2.15   8 2.15   5 2.15   2 3.03   4 3.03
                             1 3.03   2 3.03   1 3.03   1 3.03   2 3.03   4 3.03   4 3.03   2 3.03
   4  0.500  0.500  0.000-   5 2.15   6 2.15   7 2.15   6 2.15   7 2.15   5 2.15   2 3.03   3 3.03
                             1 3.03   2 3.03   1 3.03   1 3.03   2 3.03   3 3.03   3 3.03   2 3.03
   5  0.500  0.500  0.500-   2 2.15   3 2.15   4 2.15   2 2.15   3 2.15   4 2.15
   6  0.500  0.000  0.000-   1 2.15   3 2.15   4 2.15   1 2.15   3 2.15   4 2.15
   7  0.000  0.500  0.000-   1 2.15   2 2.15   4 2.15   1 2.15   2 2.15   4 2.15
   8  0.000  0.000  0.500-   1 2.15   2 2.15   3 2.15   1 2.15   2 2.15   3 2.15

  LATTYP: Found a simple cubic cell.
 ALAT       =     4.2918211462

  Lattice vectors:

 A1 = (   4.2918211462,   0.0000000000,   0.0000000000)
 A2 = (   0.0000000000,   4.2918211462,   0.0000000000)
 A3 = (   0.0000000000,   0.0000000000,   4.2918211462)

Analysis of symmetry for initial positions (statically):
 Subroutine PRICEL returns following result:

  LATTYP: Found a face centered cubic cell.
 ALAT       =     4.2918211462

[...]

   4 primitive cells build up your supercell.

 Routine SETGRP: Setting up the symmetry group for a
 simple cubic supercell.

 Subroutine GETGRP returns: Found 48 space group operations
 (whereof 48 operations were pure point group operations)
 out of a pool of 48 trial point group operations.

The static configuration has the point symmetry O_h .

Analysis of symmetry for dynamics (positions and initial velocities):
 Subroutine PRICEL returns following result:

  LATTYP: Found a face centered cubic cell.
 ALAT       =     4.2918211462

  Lattice vectors:

 A1 = (   2.1459105731,   2.1459105731,  -0.0000000000)
 A2 = (   2.1459105731,   0.0000000000,  -2.1459105731)
 A3 = (   0.0000000000,   2.1459105731,  -2.1459105731)

   4 primitive cells build up your supercell.

 Routine SETGRP: Setting up the symmetry group for a
 simple cubic supercell.

 Subroutine GETGRP returns: Found 48 space group operations
 (whereof 48 operations were pure point group operations)
 out of a pool of 48 trial point group operations.

The dynamic configuration has the point symmetry O_h .

 Subroutine INISYM returns: Found 48 space group operations
 (whereof 48 operations are pure point group operations),
 and found     4 'primitive' translations

 KPOINTS: KPOINTS created by Atomic Simulation Env

Automatic generation of k-mesh.
Space group operators:
 irot       det(A)        alpha          n_x          n_y          n_z        tau_x        tau_y        tau_z
    1     1.000000     0.000000     1.000000     0.000000     0.000000     0.000000     0.000000     0.000000
    2    -1.000000     0.000000     1.000000     0.000000     0.000000     0.000000     0.000000     0.000000
    3     1.000000   120.000000    -0.577350    -0.577350    -0.577350     0.000000     0.000000     0.000000
    4    -1.000000   120.000000    -0.577350    -0.577350    -0.577350     0.000000     0.000000     0.000000
    5     1.000000   120.000000     0.577350     0.577350     0.577350     0.000000     0.000000     0.000000
    6    -1.000000   120.000000     0.577350     0.577350     0.577350     0.000000     0.000000     0.000000
    7     1.000000    90.000000     0.000000     0.000000    -1.000000     0.000000     0.000000     0.000000
    8    -1.000000    90.000000     0.000000     0.000000    -1.000000     0.000000     0.000000     0.000000
    9     1.000000   180.000000     0.000000     0.707107     0.707107     0.000000     0.000000     0.000000
   10    -1.000000   180.000000     0.000000     0.707107     0.707107     0.000000     0.000000     0.000000
   11     1.000000    90.000000     0.000000     1.000000     0.000000     0.000000     0.000000     0.000000
   12    -1.000000    90.000000     0.000000     1.000000     0.000000     0.000000     0.000000     0.000000
   13     1.000000   180.000000     0.000000     0.000000     1.000000     0.000000     0.000000     0.000000
   14    -1.000000   180.000000     0.000000     0.000000     1.000000     0.000000     0.000000     0.000000
   15     1.000000   120.000000    -0.577350     0.577350     0.577350     0.000000     0.000000     0.000000
   16    -1.000000   120.000000    -0.577350     0.577350     0.577350     0.000000     0.000000     0.000000
   17     1.000000   120.000000    -0.577350     0.577350    -0.577350     0.000000     0.000000     0.000000
   18    -1.000000   120.000000    -0.577350     0.577350    -0.577350     0.000000     0.000000     0.000000
   19     1.000000    90.000000     0.000000     0.000000     1.000000     0.000000     0.000000     0.000000
   20    -1.000000    90.000000     0.000000     0.000000     1.000000     0.000000     0.000000     0.000000
   21     1.000000    90.000000    -1.000000     0.000000     0.000000     0.000000     0.000000     0.000000
   22    -1.000000    90.000000    -1.000000     0.000000     0.000000     0.000000     0.000000     0.000000
   23     1.000000   180.000000     0.707107     0.000000     0.707107     0.000000     0.000000     0.000000
   24    -1.000000   180.000000     0.707107     0.000000     0.707107     0.000000     0.000000     0.000000
   25     1.000000   120.000000     0.577350    -0.577350     0.577350     0.000000     0.000000     0.000000
   26    -1.000000   120.000000     0.577350    -0.577350     0.577350     0.000000     0.000000     0.000000
   27     1.000000   120.000000    -0.577350    -0.577350     0.577350     0.000000     0.000000     0.000000
   28    -1.000000   120.000000    -0.577350    -0.577350     0.577350     0.000000     0.000000     0.000000
   29     1.000000   180.000000     1.000000     0.000000     0.000000     0.000000     0.000000     0.000000
   30    -1.000000   180.000000     1.000000     0.000000     0.000000     0.000000     0.000000     0.000000
   31     1.000000    90.000000     0.000000    -1.000000     0.000000     0.000000     0.000000     0.000000
   32    -1.000000    90.000000     0.000000    -1.000000     0.000000     0.000000     0.000000     0.000000
   33     1.000000   180.000000     0.707107     0.707107     0.000000     0.000000     0.000000     0.000000
   34    -1.000000   180.000000     0.707107     0.707107     0.000000     0.000000     0.000000     0.000000
   35     1.000000    90.000000     1.000000     0.000000     0.000000     0.000000     0.000000     0.000000
   36    -1.000000    90.000000     1.000000     0.000000     0.000000     0.000000     0.000000     0.000000
   37     1.000000   120.000000     0.577350    -0.577350    -0.577350     0.000000     0.000000     0.000000
   38    -1.000000   120.000000     0.577350    -0.577350    -0.577350     0.000000     0.000000     0.000000
   39     1.000000   180.000000     0.000000     1.000000     0.000000     0.000000     0.000000     0.000000
   40    -1.000000   180.000000     0.000000     1.000000     0.000000     0.000000     0.000000     0.000000
   41     1.000000   120.000000     0.577350     0.577350    -0.577350     0.000000     0.000000     0.000000
   42    -1.000000   120.000000     0.577350     0.577350    -0.577350     0.000000     0.000000     0.000000
   43     1.000000   180.000000     0.000000    -0.707107     0.707107     0.000000     0.000000     0.000000
   44    -1.000000   180.000000     0.000000    -0.707107     0.707107     0.000000     0.000000     0.000000
   45     1.000000   180.000000     0.707107    -0.707107     0.000000     0.000000     0.000000     0.000000
   46    -1.000000   180.000000     0.707107    -0.707107     0.000000     0.000000     0.000000     0.000000
   47     1.000000   180.000000     0.707107     0.000000    -0.707107     0.000000     0.000000     0.000000
   48    -1.000000   180.000000     0.707107     0.000000    -0.707107     0.000000     0.000000     0.000000

 Subroutine IBZKPT returns following result:

 Found     20 irreducible k-points:

 Following reciprocal coordinates:
            Coordinates               Weight
  0.000000  0.000000  0.000000      1.000000
  0.142857  0.000000  0.000000      6.000000
  0.285714  0.000000  0.000000      6.000000
  0.428571  0.000000  0.000000      6.000000
  0.142857  0.142857  0.000000     12.000000
  0.285714  0.142857  0.000000     24.000000
  0.428571  0.142857  0.000000     24.000000
  0.285714  0.285714  0.000000     12.000000
  0.428571  0.285714  0.000000     24.000000
  0.428571  0.428571  0.000000     12.000000
  0.142857  0.142857  0.142857      8.000000
  0.285714  0.142857  0.142857     24.000000
  0.428571  0.142857  0.142857     24.000000
  0.285714  0.285714  0.142857     24.000000
  0.428571  0.285714  0.142857     48.000000
  0.428571  0.428571  0.142857     24.000000
  0.285714  0.285714  0.285714      8.000000
  0.428571  0.285714  0.285714     24.000000
  0.428571  0.428571  0.285714     24.000000
  0.428571  0.428571  0.428571      8.000000

 Following cartesian coordinates:
            Coordinates               Weight
  0.000000  0.000000  0.000000      1.000000
  0.033286  0.000000  0.000000      6.000000
  0.066572  0.000000  0.000000      6.000000
  0.099858  0.000000  0.000000      6.000000
  0.033286  0.033286  0.000000     12.000000
  0.066572  0.033286  0.000000     24.000000
  0.099858  0.033286  0.000000     24.000000
  0.066572  0.066572  0.000000     12.000000
  0.099858  0.066572  0.000000     24.000000
  0.099858  0.099858  0.000000     12.000000
  0.033286  0.033286  0.033286      8.000000
  0.066572  0.033286  0.033286     24.000000
  0.099858  0.033286  0.033286     24.000000
  0.066572  0.066572  0.033286     24.000000
  0.099858  0.066572  0.033286     48.000000
[...]

 Broyden mixing: mesh for mixing (old mesh)
   NGX = 13   NGY = 13   NGZ = 13
  (NGX  = 48   NGY  = 48   NGZ  = 48)
  gives a total of   2197 points

 initial charge density was supplied:
 charge density of overlapping atoms calculated
 number of electron      60.0000000 magnetization
 keeping initial charge density in first step

 Maximum index for augmentation-charges          450 (set IRDMAX)

 First call to EWALD:  gamma=   0.413
 Maximum number of real-space cells 3x 3x 3
 Maximum number of reciprocal cells 3x 3x 3

--------------------------------------- Iteration      1(   1)  ---------------------------------------

 eigenvalue-minimisations  :  1440
 total energy-change (2. order) : 0.5541505E+03  (-0.2361263E+04)
 number of electron      60.0000000 magnetization
 augmentation part       60.0000000 magnetization

 Free energy of the ion-electron system (eV)
  alpha Z        PSCENC =       213.19001967
  Ewald energy   TEWEN  =     -4389.36715041
  -Hartree energ DENC   =      -968.76745796
  -exchange      EXHF   =         0.00000000
  -V(xc)+E(xc)   XCENC  =       175.09995952
  PAW double counting   =      4270.24302607    -4489.55754021
  entropy T*S    EENTRO =        -0.01488250
  eigenvalues    EBANDS =       760.84085215
  atomic energy  EATOM  =      4982.48372054
  Solvation  Ediel_sol  =         0.00000000
  free energy    TOTEN  =       554.15054688 eV

  energy without entropy =      554.16542938  energy(sigma->0) =      554.15798813

[...]

 eigenvalue-minimisations  :  1476
 total energy-change (2. order) :-0.5189024E+03  (-0.4957706E+03)
 number of electron      60.0000000 magnetization
 augmentation part       60.0000000 magnetization

[...]

 Broyden mixing:
  rms(total) = 0.24131E+01    rms(broyden)= 0.24053E+01
  rms(prec ) = 0.50614E+01
  weight for this iteration     100.00

[...]

 eigenvalues of (default mixing * dielectric matrix)
  average eigenvalue GAMMA=   0.3819
  0.3819

[...]

 average (electrostatic) potential at core
  the test charge radii are     1.0452  0.7215
  (the norm of the test charge is              1.0000)
       1 -80.8508       2 -80.8508       3 -80.8508       4 -80.8508       5 -69.4208
       6 -69.4208       7 -69.4208       8 -69.4208

 E-fermi :   7.3687     XC(G=0): -12.2924     alpha+bet :-13.5213

 k-point     1 :       0.0000    0.0000    0.0000
  band No.  band energies     occupation
      1     -12.7361      2.00000
      2     -11.5846      2.00000
      3     -11.5846      2.00000
      4     -11.5846      2.00000
      5       0.7763      2.00000
      6       0.7763      2.00000
      7       0.7763      2.00000
      8       3.0570      2.00000
      9       3.0570      2.00000
     10       3.0570      2.00000
     11       3.0570      2.00000
     12       3.0570      2.00000
     13       3.0570      2.00000
     14       4.1601      2.00000
     15       4.1601      2.00000
     16       4.1601      2.00000
     17       5.1345      2.00000
     18       5.1345      2.00000
     19       5.1345      2.00000
     20       6.1408      2.00000
     21       6.1408      2.00000
     22       6.1408      2.00000
     23       6.3795      2.00000
     24       6.3795      2.00000
     25       6.7777      2.00000
     26       6.7777      2.00000
     27       6.7777      2.00000
     28       7.1704      1.99496
     29       7.1704      1.99496
     30       7.1704      1.99496
     31       7.2679      1.84606
     32       7.2679      1.84606
     33       7.2679      1.84606
     34       7.2679      1.84606
     35       7.2679      1.84606
     36       7.2679      1.84606

[...]

 soft charge-density along one line, spin component           1
         0         1         2         3         4         5         6         7         8         9
 total charge-density along one line

------------------------ aborting loop because EDIFF is reached ----------------------------------------

  FORCE on cell =-STRESS in cart. coord.  units (eV):
  Direction    XX          YY          ZZ          XY          YZ          ZX
  Alpha Z   213.19002   213.19002   213.19002
  Ewald   -1463.12456 -1463.12456 -1463.12456    -0.00000    -0.00000     0.00000
  Hartree   318.35149   318.35149   318.35149    -0.00000    -0.00000    -0.00000
  E(xc)    -300.47253  -300.47253  -300.47253     0.00000     0.00000     0.00000
  Local    -119.00978  -119.00978  -119.00978     0.00000     0.00000     0.00000
  n-local  -134.76995  -143.49334  -143.43940     1.09642     0.21144     0.21684
  augment   657.60879   657.60879   657.60879    -0.00000     0.00000     0.00000
  Kinetic   792.27651   818.99008   850.60636    -2.64860    -3.01006    -2.02445
  Fock        0.00000     0.00000     0.00000     0.00000     0.00000     0.00000
  Total     -13.39982   -13.39982   -13.39982     0.00000     0.00000    -0.00000
  in kB    -271.57187  -271.57187  -271.57187     0.00000     0.00000    -0.00000

 VOLUME and BASIS-vectors are now :
  energy-cutoff  :      400.00
  volume of cell :       79.05
      direct lattice vectors                 reciprocal lattice vectors
     4.291821146  0.000000000  0.000000000     0.233001322  0.000000000  0.000000000
     0.000000000  4.291821146  0.000000000     0.000000000  0.233001322  0.000000000
     0.000000000  0.000000000  4.291821146     0.000000000  0.000000000  0.233001322

[...]

 FORCES acting on ions
    electron-ion (+dipol)            ewald-force                    non-local-force                 convergence-correction
   0.578E-06 0.578E-06 0.578E-06   -.196E-05 -.196E-05 -.196E-05   0.827E-24 -.517E-24 -.827E-24   0.235E-08 0.235E-08 0.235E-08
   0.578E-06 -.907E-06 -.907E-06   -.196E-05 0.196E-05 0.196E-05   0.114E-23 -.372E-23 -.827E-24   0.235E-08 -.235E-08 -.235E-08
   -.907E-06 0.578E-06 -.907E-06   0.196E-05 -.196E-05 0.196E-05   0.827E-24 0.258E-24 0.000E+00   -.235E-08 0.235E-08 -.235E-08
   -.907E-06 -.907E-06 0.578E-06   0.196E-05 0.196E-05 -.196E-05   -.165E-23 0.827E-24 0.000E+00   -.235E-08 -.235E-08 0.235E-08
   0.301E-05 0.301E-05 0.301E-05   0.153E-05 0.153E-05 0.153E-05   0.807E-23 0.414E-23 -.290E-23   -.163E-08 -.163E-08 -.163E-08
   0.301E-05 0.727E-06 0.727E-06   0.153E-05 -.153E-05 -.153E-05   0.165E-23 0.827E-24 0.000E+00   -.163E-08 0.166E-08 0.166E-08
   0.727E-06 0.301E-05 0.727E-06   -.153E-05 0.153E-05 -.153E-05   0.496E-23 -.124E-23 0.496E-23   0.166E-08 -.163E-08 0.166E-08
   0.727E-06 0.727E-06 0.301E-05   -.153E-05 -.153E-05 0.153E-05   0.827E-23 -.827E-23 0.703E-23   0.166E-08 0.166E-08 -.163E-08
   0.682E-05 0.682E-05 0.682E-05   -.146E-14 -.150E-14 -.787E-15   0.241E-22 -.770E-23 0.744E-23   0.484E-10 0.483E-10 0.485E-10

 POSITION                                       TOTAL-FORCE (eV/Angst)
      0.00000      0.00000      0.00000         0.000000      0.000000     -0.000000
      0.00000      2.14591      2.14591         0.000000      0.000000      0.000000
      2.14591      0.00000      2.14591        -0.000000     -0.000000     -0.000000
      2.14591      2.14591      0.00000         0.000000     -0.000000      0.000000
      2.14591      2.14591      2.14591        -0.000000     -0.000000     -0.000000
      2.14591      0.00000      0.00000         0.000000      0.000000     -0.000000
      0.00000      2.14591      0.00000         0.000000     -0.000000      0.000000
      0.00000      0.00000      2.14591        -0.000000     -0.000000      0.000000
    total drift:                                0.000007      0.000007      0.000007

  FREE ENERGIE OF THE ION-ELECTRON SYSTEM (eV)
  free  energy   TOTEN  =       -49.83386584 eV

  energy  without entropy=      -49.73318890  energy(sigma->0) =      -49.78352737

 stress matrix after NEB project (eV)
    -13.39982     -0.00000     -0.00000
      0.00000    -13.39982     -0.00000
      0.00000      0.00000    -13.39982
  FORCES: max atom, RMS     0.000000    0.000000
  FORCE total and by dimension    0.000000    0.000000
  Stress total and by dimension   23.209173   13.399822

[...]

 d Force = 0.0000000E+00[ 0.000E+00, 0.000E+00]  d Energy = 0.3181287E+00-0.318E+00
 d Force = 0.0000000E+00[ 0.000E+00, 0.000E+00]  d Ewald  = 0.3858644E+03-0.386E+03

 stress matrix after NEB project (eV)
     13.20022      0.00000      0.00000
     -0.00000     13.20022     -0.00000
     -0.00000      0.00000     13.20022
  FORCES: max atom, RMS     0.000000    0.000000
  FORCE total and by dimension    0.000000    0.000000
  Stress total and by dimension   22.863454   13.200222
 Steepest descent step on ions:
 trial-energy change:   -0.318129  1 .order   -0.024193   -3.248333    3.199947
  (g-gl).g = 0.325E+01      g.g   = 0.325E+01  gl.gl    = 0.000E+00
 g(Force)  = 0.242E-46   g(Stress)= 0.325E+01 ortho     = 0.000E+00
 gamma     =   0.00000
 trial     =   1.00000
 opt step  =   0.57076  (harmonic =   0.50375) maximal distance =0.00000000
 next E    =   -50.815524   (d E  =  -0.98166)

[...]

 eigenvalue-minimisations  :  1728
 total energy-change (2. order) :-0.5659524E+01  (-0.1293535E+02)
 number of electron      60.0000181 magnetization
 augmentation part       24.9487462 magnetization

[...]

 Broyden mixing:
  rms(total) = 0.29412E-03    rms(broyden)= 0.29286E-03
  rms(prec ) = 0.56123E-03
  weight for this iteration     100.00

 eigenvalues of (default mixing * dielectric matrix)
  average eigenvalue GAMMA=   1.5234
  3.0202  2.5941  2.2356  0.5557  1.3187  1.0478  1.0478  0.9456  0.9456

[...]

--------------------------------------- Iteration      3(  11)  ---------------------------------------

 eigenvalue-minimisations  :   720
 total energy-change (2. order) : 0.3257810E-07  (-0.1188717E-06)
 number of electron      60.0000161 magnetization
 augmentation part       23.5949470 magnetization

 Free energy of the ion-electron system (eV)
  alpha Z        PSCENC =       245.63262912
  Ewald energy   TEWEN  =     -4601.59407088
  -Hartree energ DENC   =      -866.03584266
  -exchange      EXHF   =         0.00000000
  -V(xc)+E(xc)   XCENC  =       178.98834220
  PAW double counting   =      5542.29726869    -5765.24730758
  entropy T*S    EENTRO =        -0.05372982
  eigenvalues    EBANDS =       232.68457628
  atomic energy  EATOM  =      4982.48372054
  Solvation  Ediel_sol  =         0.00000000
  free energy    TOTEN  =       -50.84441410 eV

  energy without entropy =      -50.79068428  energy(sigma->0) =      -50.81754919

 average (electrostatic) potential at core
  the test charge radii are     1.0452  0.7215
  (the norm of the test charge is              1.0000)
       1 -78.9379       2 -78.9379       3 -78.9379       4 -78.9379       5 -67.8683
       6 -67.8683       7 -67.8683       8 -67.8683

 E-fermi :   9.5043     XC(G=0): -13.1211     alpha+bet :-15.5789

[...]

 k-point    20 :       0.4286    0.4286    0.4286
  band No.  band energies     occupation
      1     -10.5384      2.00000
      2     -10.4510      2.00000
      3     -10.4510      2.00000
      4     -10.4510      2.00000
      5       0.5630      2.00000
      6       0.5630      2.00000
      7       0.5630      2.00000
      8       0.6560      2.00000
      9       3.2327      2.00000
     10       3.2327      2.00000
     11       3.2327      2.00000
     12       3.3236      2.00000
     13       3.3236      2.00000
     14       3.3236      2.00000
     15       3.3580      2.00000
     16       3.3580      2.00000
     17       8.8739      2.00000
     18       8.8739      2.00000
     19       8.8739      2.00000
     20       8.9012      2.00000
     21       8.9012      2.00000
     22       8.9746      2.00000
     23       8.9746      2.00000
     24       8.9746      2.00000
     25       9.2082      1.99997
     26       9.2839      1.99817
     27       9.2839      1.99817
     28       9.2839      1.99817
     29      11.1244      0.00000
     30      11.1244      0.00000
     31      11.1244      0.00000
     32      11.1616      0.00000
     33      11.1616      0.00000
     34      11.1616      0.00000
     35      11.1701      0.00000
     36      11.1701      0.00000

 soft charge-density along one line, spin component           1
         0         1         2         3         4         5         6         7         8         9
 total charge-density along one line

------------------------ aborting loop because EDIFF is reached ----------------------------------------

  FORCE on cell =-STRESS in cart. coord.  units (eV):
  Direction    XX          YY          ZZ          XY          YZ          ZX
  Alpha Z   245.63263   245.63263   245.63263
  Ewald   -1533.86697 -1533.86697 -1533.86697    -0.00000     0.00000     0.00000
  Hartree   288.67781   288.67781   288.67781    -0.00000    -0.00000    -0.00000
  E(xc)    -303.81752  -303.81752  -303.81752    -0.00000     0.00000    -0.00000
  Local     -51.47215   -51.47215   -51.47215     0.00000     0.00000     0.00000
  n-local  -129.11061  -137.72381  -137.05252     0.67074     0.11015     0.01420
  augment   656.46519   656.46519   656.46519     0.00000    -0.00000    -0.00000
  Kinetic   805.01588   831.26970   862.09378    -2.64465    -3.72632    -2.11090
  Fock        0.00000     0.00000     0.00000     0.00000     0.00000     0.00000
  Total      -0.21686    -0.21686    -0.21686     0.00000    -0.00000     0.00000
  in kB      -5.06397    -5.06397    -5.06397     0.00000    -0.00000     0.00000

 VOLUME and BASIS-vectors are now :
  energy-cutoff  :      400.00
  volume of cell :       68.61
      direct lattice vectors                 reciprocal lattice vectors
     4.093881047 -0.000000000 -0.000000000     0.244266990 -0.000000000 -0.000000000
     0.000000000  4.093881047 -0.000000000     0.000000000  0.244266990 -0.000000000
     0.000000000  0.000000000  4.093881047     0.000000000  0.000000000  0.244266990

  length of vectors
     4.093881047  4.093881047  4.093881047     0.244266990  0.244266990  0.244266990

 FORCES acting on ions
    electron-ion (+dipol)            ewald-force                    non-local-force                 convergence-correction
   0.640E-06 0.640E-06 0.640E-06   -.216E-05 -.216E-05 -.216E-05   0.207E-24 0.620E-24 -.227E-23   0.462E-10 0.462E-10 0.462E-10
   0.640E-06 -.106E-05 -.106E-05   -.216E-05 0.216E-05 0.216E-05   0.829E-24 0.151E-27 0.124E-23   0.462E-10 -.452E-10 -.452E-10
   -.106E-05 0.640E-06 -.106E-05   0.216E-05 -.216E-05 0.216E-05   -.413E-24 0.146E-28 0.517E-25   -.453E-10 0.462E-10 -.452E-10
   -.106E-05 -.106E-05 0.640E-06   0.216E-05 0.216E-05 -.216E-05   -.643E-27 0.827E-24 0.145E-23   -.453E-10 -.452E-10 0.462E-10
   0.270E-05 0.270E-05 0.270E-05   0.168E-05 0.168E-05 0.168E-05   0.312E-26 0.414E-24 -.165E-23   -.367E-10 -.366E-10 -.366E-10
   0.270E-05 0.799E-06 0.799E-06   0.168E-05 -.168E-05 -.168E-05   -.166E-23 0.165E-23 0.207E-23   -.367E-10 0.341E-10 0.341E-10
   0.799E-06 0.270E-05 0.799E-06   -.168E-05 0.168E-05 -.168E-05   0.240E-23 0.289E-23 0.165E-23   0.341E-10 -.367E-10 0.341E-10
   0.799E-06 0.799E-06 0.270E-05   -.168E-05 -.168E-05 0.168E-05   -.620E-24 0.579E-23 -.414E-24   0.341E-10 0.341E-10 -.366E-10
   0.617E-05 0.617E-05 0.617E-05   -.799E-15 0.135E-14 0.124E-14   0.749E-24 0.122E-22 0.212E-23   -.323E-11 -.321E-11 -.293E-11

 POSITION                                       TOTAL-FORCE (eV/Angst)
      0.00000      0.00000     -0.00000        -0.000000     -0.000000     -0.000000
      0.00000      2.04694      2.04694        -0.000000     -0.000000     -0.000000
      2.04694     -0.00000      2.04694        -0.000000     -0.000000     -0.000000
      2.04694      2.04694     -0.00000        -0.000000      0.000000     -0.000000
      2.04694      2.04694      2.04694         0.000000      0.000000     -0.000000
      2.04694     -0.00000     -0.00000         0.000000      0.000000      0.000000
      0.00000      2.04694     -0.00000         0.000000     -0.000000      0.000000
      0.00000      0.00000      2.04694        -0.000000     -0.000000      0.000000
    total drift:                                0.000006      0.000006      0.000006

  FREE ENERGIE OF THE ION-ELECTRON SYSTEM (eV)
  free  energy   TOTEN  =       -50.84441410 eV

  energy  without entropy=      -50.79068428  energy(sigma->0) =      -50.81754919

 d Force = 0.0000000E+00[ 0.000E+00, 0.000E+00]  d Energy = 0.6924195E+00-0.692E+00
 d Force = 0.0000000E+00[ 0.000E+00, 0.000E+00]  d Ewald  =-0.1736375E+03 0.174E+03

 stress matrix after NEB project (eV)
     -0.21686     -0.00000      0.00000
      0.00000     -0.21686     -0.00000
      0.00000     -0.00000     -0.21686
  FORCES: max atom, RMS     0.000000    0.000000
  FORCE total and by dimension    0.000000    0.000000
  Stress total and by dimension    0.375618    0.216863

 reached required accuracy - stopping structural energy minimisation