 vasp.5.4.4.18Apr17-6-g9f103f2a35 (build Apr 13 2025 12:23:30) complex

 executed on             LinuxIFC date 2025.04.17  14:00:12

 INCAR:
 POTCAR:    PAW_PBE Co 02Aug2007
 POTCAR:    PAW_PBE O 08Apr2002
 POTCAR:    PAW_PBE H 15Jun2001
 POTCAR:    PAW_PBE Co 02Aug2007
   VRHFIN =Co: d8 s1

   TITEL  = PAW_PBE Co 02Aug2007
   POMASS =   58.933; ZVAL   =    9.000    mass and valenz
   ENMAX  =  267.968; ENMIN  =  200.976 eV

   TITEL  = PAW_PBE O 08Apr2002
   POMASS =   16.000; ZVAL   =    6.000    mass and valenz
   ENMAX  =  400.000; ENMIN  =  300.000 eV

   TITEL  = PAW_PBE H 15Jun2001
   POMASS =    1.000; ZVAL   =    1.000    mass and valenz
   ENMAX  =  250.000; ENMIN  =  200.000 eV

  PAW_PBE Co 02Aug2007                  :
  PAW_PBE O 08Apr2002                   :
  PAW_PBE H 15Jun2001                   :

 POSCAR: Co O  H
  positions in cartesian coordinates
 exchange correlation table for  LEXCH =        8
   RHO(1)=    0.500       N(1)  =     2000
   RHO(2)=  100.500       N(2)  =     4000

 VTST: version 3.2, (02/03/18)

 CHAIN: initializing optimizer

 OPT: Using VASP Conjugate-Gradient optimizer
 CHAIN: Read ICHAIN            0

 POSCAR: Co O  H
  positions in cartesian coordinates

 ion  position               nearest neighbor table
   1  0.000  0.000  1.000-   6 1.93   3 1.93   3 1.93   6 1.93   3 1.93   6 1.93
   2  0.000  0.000  0.500-   5 1.93   4 1.93   4 1.93   4 1.93   5 1.93   5 1.93
   3  0.333  0.667  0.112-   7 1.20   1 1.93   1 1.93   1 1.93
   4  0.667  0.333  0.612-   8 1.20   2 1.93   2 1.93   2 1.93
   5  0.333  0.667  0.388-   7 1.20   2 1.93   2 1.93   2 1.93
   6  0.667  0.333  0.888-   8 1.20   1 1.93   1 1.93   1 1.93
   7  0.333  0.667  0.250-   3 1.20   5 1.20
   8  0.667  0.333  0.750-   4 1.20   6 1.20

  LATTYP: Found a hexagonal cell.
 ALAT       =     2.8802545935
 C/A-ratio  =     3.0281952536

  Lattice vectors:

 A1 = (   2.8802545935,   0.0000002843,  -0.0000009609)
 A2 = (  -1.4401270506,   2.4943732210,   0.0000019218)
 A3 = (  -0.0000031691,   0.0000054891,   8.7219732893)

Analysis of symmetry for initial positions (statically):
 Subroutine PRICEL returns:
 Original cell was already a primitive cell.

 Routine SETGRP: Setting up the symmetry group for a
 hexagonal supercell.

 Subroutine GETGRP returns: Found  2 space group operations
 (whereof  1 operations were pure point group operations)
 out of a pool of 24 trial point group operations.

The static configuration has the point symmetry C_1 .
 The point group associated with its full space group is C_1h.

Analysis of symmetry for dynamics (positions and initial velocities):
 Subroutine PRICEL returns:
 Original cell was already a primitive cell.

 Routine SETGRP: Setting up the symmetry group for a
 hexagonal supercell.

 Subroutine GETGRP returns: Found  2 space group operations
 (whereof  1 operations were pure point group operations)
 out of a pool of 24 trial point group operations.

The dynamic configuration has the point symmetry C_1 .
 The point group associated with its full space group is C_1h.

 Subroutine INISYM returns: Found  2 space group operations
 (whereof  1 operations are pure point group operations),
 and found     1 'primitive' translations

 KPOINTS: KPOINTS created by Atomic Simulation Env

Automatic generation of k-mesh.
Space group operators:
 irot       det(A)        alpha          n_x          n_y          n_z        tau_x        tau_y        tau_z
    1     1.000000     0.000000     1.000000     0.000000     0.000000     0.000000     0.000000     0.000000
    2    -1.000000   179.999999     0.866025     0.500000    -0.000000     0.000000     0.000000     0.500000

 Subroutine IBZKPT returns following result:

 Found    138 irreducible k-points:

 Following reciprocal coordinates:
            Coordinates               Weight
  0.000000  0.000000  0.000000      1.000000
  0.090909 -0.000000  0.000000      2.000000
  0.181818 -0.000000  0.000000      2.000000
  0.272727 -0.000000  0.000000      2.000000
  0.363636 -0.000000  0.000000      2.000000
  0.454545 -0.000000 -0.000000      2.000000
 -0.000000  0.090909  0.000000      4.000000
  0.090909  0.090909  0.000000      4.000000
  0.181818  0.090909  0.000000      4.000000
  0.272727  0.090909 -0.000000      4.000000
  0.363636  0.090909 -0.000000      4.000000
  0.454545  0.090909 -0.000000      2.000000
 -0.000000  0.181818  0.000000      4.000000
  0.090909  0.181818 -0.000000      4.000000
  0.181818  0.181818  0.000000      4.000000
  0.272727  0.181818  0.000000      4.000000
  0.363636  0.181818  0.000000      4.000000
 -0.090909  0.181818 -0.000000      2.000000
 -0.000000  0.272727  0.000000      4.000000
  0.090909  0.272727  0.000000      4.000000
  0.181818  0.272727  0.000000      4.000000
  0.272727  0.272727  0.000000      4.000000
  0.363636  0.272727  0.000000      2.000000
 -0.181818  0.272727  0.000000      4.000000
 -0.000000  0.363636  0.000000      4.000000
  0.090909  0.363636 -0.000000      4.000000
  0.181818  0.363636 -0.000000      4.000000
  0.272727  0.363636 -0.000000      4.000000
 -0.272727  0.363636  0.000000      4.000000
 -0.181818  0.363636 -0.000000      2.000000
 -0.000000  0.454545 -0.000000      4.000000
  0.090909  0.454545  0.000000      4.000000
  0.181818  0.454545 -0.000000      4.000000
  0.272727  0.454545  0.000000      2.000000
 -0.363636  0.454545  0.000000      4.000000
 -0.272727  0.454545  0.000000      4.000000
  0.000000  0.000000  0.250000      2.000000
  0.090909 -0.000000  0.250000      4.000000
  0.181818  0.000000  0.250000      4.000000
  0.272727  0.000000  0.250000      4.000000
  0.363636 -0.000000  0.250000      4.000000
  0.454545  0.000000  0.250000      4.000000
  0.000000  0.090909  0.250000      4.000000
  0.090909  0.090909  0.250000      4.000000
  0.181818  0.090909  0.250000      4.000000
  0.272727  0.090909  0.250000      4.000000
  0.363636  0.090909  0.250000      4.000000
  0.454545  0.090909  0.250000      2.000000
  0.000000  0.181818  0.250000      4.000000
  0.090909  0.181818  0.250000      4.000000
  0.181818  0.181818  0.250000      4.000000
  0.272727  0.181818  0.250000      4.000000
  0.363636  0.181818  0.250000      4.000000
 -0.090909  0.181818  0.250000      2.000000
  0.000000  0.272727  0.250000      4.000000
  0.090909  0.272727  0.250000      4.000000
  0.181818  0.272727  0.250000      4.000000
  0.272727  0.272727  0.250000      4.000000
  0.363636  0.272727  0.250000      2.000000
 -0.181818  0.272727  0.250000      4.000000
[...]
  0.272727  0.272727  0.500000      4.000000
  0.363636  0.272727  0.500000      2.000000
 -0.181818  0.272727  0.500000      4.000000
  0.000000  0.363636  0.500000      4.000000
  0.090909  0.363636  0.500000      4.000000
  0.181818  0.363636  0.500000      4.000000
  0.272727  0.363636  0.500000      4.000000
 -0.272727  0.363636  0.500000      4.000000
 -0.181818  0.363636  0.500000      2.000000
  0.000000  0.454545  0.500000      4.000000
  0.090909  0.454545  0.500000      4.000000
  0.181818  0.454545  0.500000      4.000000
  0.272727  0.454545  0.500000      2.000000
 -0.363636  0.454545  0.500000      4.000000
 -0.272727  0.454545  0.500000      4.000000

 Following cartesian coordinates:
            Coordinates               Weight
  0.000000  0.000000  0.000000      1.000000
  0.031563  0.018223 -0.000000      2.000000
  0.063126  0.036446 -0.000000      2.000000
  0.094689  0.054668 -0.000000      2.000000
  0.126251  0.072891 -0.000000      2.000000
  0.157814  0.091114 -0.000000      2.000000
 -0.000000  0.036446 -0.000000      4.000000
  0.031563  0.054668 -0.000000      4.000000
  0.063126  0.072891 -0.000000      4.000000
  0.094689  0.091114 -0.000000      4.000000
  0.126251  0.109337 -0.000000      4.000000
  0.157814  0.127560 -0.000000      2.000000
 -0.000000  0.072891 -0.000000      4.000000
  0.031563  0.091114 -0.000000      4.000000
  0.063126  0.109337 -0.000000      4.000000
  0.094689  0.127560 -0.000000      4.000000
  0.126251  0.145783 -0.000000      4.000000
 -0.031563  0.054668 -0.000000      2.000000
 -0.000000  0.109337 -0.000000      4.000000
  0.031563  0.127560 -0.000000      4.000000
  0.063126  0.145783 -0.000000      4.000000
  0.094689  0.164005 -0.000000      4.000000
  0.126251  0.182228 -0.000000      2.000000
 -0.063126  0.072891 -0.000000      4.000000
 -0.000000  0.145783 -0.000000      4.000000
  0.031563  0.164005 -0.000000      4.000000
  0.063126  0.182228 -0.000000      4.000000
  0.094689  0.200451 -0.000000      4.000000
 -0.094689  0.091114 -0.000000      4.000000
 -0.063126  0.109337 -0.000000      2.000000
 -0.000000  0.182228 -0.000000      4.000000
  0.031563  0.200451 -0.000000      4.000000
  0.063126  0.218674 -0.000000      4.000000
  0.094689  0.236897 -0.000000      2.000000
 -0.126251  0.109337 -0.000000      4.000000
 -0.094689  0.127560 -0.000000      4.000000
  0.000000 -0.000000  0.028663      2.000000
  0.031563  0.018223  0.028663      4.000000
  0.063126  0.036446  0.028663      4.000000
  0.094689  0.054668  0.028663      4.000000
  0.126251  0.072891  0.028663      4.000000
  0.157814  0.091114  0.028663      4.000000
  0.000000  0.036446  0.028663      4.000000
  0.031563  0.054668  0.028663      4.000000
  0.063126  0.072891  0.028663      4.000000
  0.094689  0.091114  0.028663      4.000000
  0.126251  0.109337  0.028663      4.000000
  0.157814  0.127560  0.028663      2.000000
  0.000000  0.072891  0.028663      4.000000
  0.031563  0.091114  0.028663      4.000000
  0.063126  0.109337  0.028663      4.000000
  0.094689  0.127560  0.028663      4.000000
  0.126251  0.145783  0.028663      4.000000
 -0.031563  0.054668  0.028663      2.000000
 -0.000000  0.109337  0.028663      4.000000
  0.031563  0.127560  0.028663      4.000000
  0.063126  0.145783  0.028663      4.000000
  0.094689  0.164005  0.028663      4.000000
  0.126251  0.182228  0.028663      2.000000
 -0.063126  0.072891  0.028663      4.000000
[...]
  0.094689  0.164005  0.057326      4.000000
  0.126251  0.182228  0.057326      2.000000
 -0.063126  0.072891  0.057326      4.000000
  0.000000  0.145783  0.057326      4.000000
  0.031563  0.164005  0.057326      4.000000
  0.063126  0.182228  0.057326      4.000000
  0.094689  0.200451  0.057326      4.000000
 -0.094689  0.091114  0.057326      4.000000
 -0.063126  0.109337  0.057326      2.000000
  0.000000  0.182228  0.057326      4.000000
  0.031563  0.200451  0.057326      4.000000
  0.063126  0.218674  0.057326      4.000000
  0.094689  0.236897  0.057326      2.000000
 -0.126251  0.109337  0.057326      4.000000
 -0.094689  0.127560  0.057326      4.000000

 SYSTEM =  unknown system
 POSCAR =  Co O  H

 Startparameter for this run:
   NWRITE =      2    write-flag & timer
   PREC   = normal    normal or accurate (medium, high low for compatibility)
   ISTART =      0    job   : 0-new  1-cont  2-samecut
   ICHARG =      2    charge: 1-file 2-atom 10-const
   ISPIN  =      1    spin polarized calculation?
   LNONCOLLINEAR =      F non collinear calculations
   LSORBIT =      F    spin-orbit coupling
   INIWAV =      1    electr: 0-lowe 1-rand  2-diag
[...]
    minimum data exchange during FFTs selected (reduces bandwidth)
 parallel 3D FFT for charge:
    minimum data exchange during FFTs selected (reduces bandwidth)

 Broyden mixing: mesh for mixing (old mesh)
   NGX =  9   NGY =  9   NGZ = 29
  (NGX  = 28   NGY  = 28   NGZ  = 96)
  gives a total of   2349 points

 initial charge density was supplied:
 charge density of overlapping atoms calculated
 number of electron      44.0000000 magnetization
 keeping initial charge density in first step

 Maximum index for augmentation-charges          375 (set IRDMAX)

 First call to EWALD:  gamma=   0.446
 Maximum number of real-space cells 4x 4x 2
 Maximum number of reciprocal cells 2x 2x 5

--------------------------------------- Iteration      1(   1)  ---------------------------------------

 eigenvalue-minimisations  :  7760
 total energy-change (2. order) : 0.4085290E+03  (-0.1842025E+04)
 number of electron      44.0000000 magnetization
 augmentation part       44.0000000 magnetization

 Free energy of the ion-electron system (eV)
  alpha Z        PSCENC =       134.56266798
  Ewald energy   TEWEN  =     -2569.14582705
  -Hartree energ DENC   =      -952.80128325
  -exchange      EXHF   =         0.00000000
  -V(xc)+E(xc)   XCENC  =       149.88921608
  PAW double counting   =      2832.48852169    -2945.76087566
  entropy T*S    EENTRO =        -0.00666440
  eigenvalues    EBANDS =       378.57771120
  atomic energy  EATOM  =      3380.72551767
  Solvation  Ediel_sol  =         0.00000000
  free energy    TOTEN  =       408.52898425 eV

  energy without entropy =      408.53564865  energy(sigma->0) =      408.53231645

[...]

 eigenvalue-minimisations  :  8448
 total energy-change (2. order) :-0.4133066E+03  (-0.3809440E+03)
 number of electron      44.0000000 magnetization
 augmentation part       44.0000000 magnetization

[...]

 Broyden mixing:
  rms(total) = 0.29398E+01    rms(broyden)= 0.29378E+01
  rms(prec ) = 0.36801E+01
  weight for this iteration     100.00

[...]

 eigenvalues of (default mixing * dielectric matrix)
  average eigenvalue GAMMA=   0.4225
  0.4225

[...]

 Broyden mixing:
  rms(total) = 0.81954E-03    rms(broyden)= 0.46520E-03
  rms(prec ) = 0.56319E-03
  weight for this iteration     100.00
  WARNING: grid for Broyden might be to small

[...]

 average (electrostatic) potential at core
  the test charge radii are     1.0452  0.7215  0.5201
  (the norm of the test charge is              1.0000)
       1 -83.6117       2 -83.6117       3 -71.0741       4 -71.0741       5 -71.0742
       6 -71.0742       7 -32.7369       8 -32.7369

 E-fermi :   5.4615     XC(G=0): -11.3339     alpha+bet :-11.8005

 k-point     1 :       0.0000    0.0000    0.0000
  band No.  band energies     occupation
      1     -15.8496      2.00000
      2     -14.8789      2.00000
      3     -14.6433      2.00000
      4     -13.2032      2.00000
      5      -4.6294      2.00000
      6      -1.7614      2.00000
      7      -0.8030      2.00000
      8      -0.3873      2.00000
      9      -0.3866      2.00000
     10      -0.2437      2.00000
     11      -0.2430      2.00000
     12       2.5861      2.00000
     13       2.5875      2.00000
     14       2.9274      2.00000
     15       2.9291      2.00000
     16       2.9323      2.00000
     17       3.8996      2.00000
     18       3.8996      2.00000
     19       3.9119      2.00000
     20       3.9120      2.00000
     21       4.2820      2.00000
     22       5.0484      2.00000
     23       6.8667      0.00000
     24       6.8675      0.00000
     25       7.1095      0.00000
     26       7.1105      0.00000
     27      10.3370      0.00000
     28      11.9299      0.00000

[...]

 soft charge-density along one line, spin component           1
         0         1         2         3         4         5         6         7         8         9
 total charge-density along one line

------------------------ aborting loop because EDIFF is reached ----------------------------------------

  FORCE on cell =-STRESS in cart. coord.  units (eV):
  Direction    XX          YY          ZZ          XY          YZ          ZX
  Alpha Z   134.56267   134.56267   134.56267
  Ewald    -630.09822  -630.08996 -1308.96168    -0.00715    -0.01722     0.00994
  Hartree   509.04785   509.04986   -50.08900    -0.00177    -0.00700     0.00404
  E(xc)    -218.17710  -218.17711  -217.04022     0.00058     0.00008     0.00024
  Local    -727.57622  -727.58671   528.92100     0.00338     0.02261    -0.01448
  n-local  -110.80338  -109.79160  -113.80913     0.28630     0.00220     0.01126
  augment   336.82972   336.83085   339.72929     0.00126     0.00047     0.00012
  Kinetic   703.36175   701.79810   683.18316    -0.46194    -0.00423    -0.00869
  Fock        0.00000     0.00000     0.00000     0.00000     0.00000     0.00000
  Total      -3.13703    -3.11982    -3.50390    -0.01490    -0.00066     0.00038
  in kB     -80.20873   -79.76868   -89.58923    -0.38109    -0.01685     0.00974

 VOLUME and BASIS-vectors are now :
  energy-cutoff  :      400.00
  volume of cell :       62.66
      direct lattice vectors                 reciprocal lattice vectors
     2.880254594  0.000000284 -0.000000961     0.347191511  0.200451112 -0.000000000
    -1.440127051  2.494373221  0.000001922    -0.000000040  0.400902293 -0.000000252
    -0.000003169  0.000005489  8.721973289     0.000000038 -0.000000066  0.114652954

[...]

 FORCES acting on ions
    electron-ion (+dipol)            ewald-force                    non-local-force                 convergence-correction
   -.100E-02 0.173E-02 -.325E-03   0.104E-02 -.180E-02 0.226E-05   0.568E-04 -.953E-04 -.629E-04   0.904E-07 -.560E-06 0.426E-03
   -.100E-02 0.174E-02 -.327E-03   0.104E-02 -.180E-02 -.363E-05   0.542E-04 -.969E-04 -.629E-04   0.435E-06 -.351E-06 0.427E-03
   -.168E-02 0.163E-02 -.211E+03   0.219E-02 -.167E-02 0.213E+03   -.224E-03 -.623E-05 -.266E+01   0.285E-05 -.263E-05 -.270E-02
   -.972E-03 0.209E-02 -.211E+03   0.351E-03 -.273E-02 0.213E+03   0.117E-03 0.191E-03 -.266E+01   0.845E-06 -.378E-05 -.270E-02
   0.149E-02 -.297E-02 0.211E+03   -.755E-03 0.344E-02 -.213E+03   -.373E-03 0.251E-03 0.266E+01   0.442E-05 -.779E-06 0.275E-02
   0.220E-02 -.251E-02 0.211E+03   -.260E-02 0.237E-02 -.213E+03   -.310E-04 0.449E-03 0.266E+01   -.154E-05 -.421E-05 0.275E-02
   -.447E-03 -.175E-02 0.721E-04   0.433E-03 0.171E-02 0.779E-05   -.317E-04 -.114E-03 0.929E-05   0.237E-06 -.218E-07 -.564E-04
   0.174E-02 -.489E-03 0.733E-04   -.170E-02 0.481E-03 0.630E-05   0.114E-03 -.294E-04 0.929E-05   -.997E-07 -.215E-06 -.563E-04
   0.318E-03 -.529E-03 -.694E-03   -.210E-13 -.881E-15 -.924E-13   -.317E-03 0.549E-03 -.393E-03   0.724E-05 -.125E-04 0.842E-03

 POSITION                                       TOTAL-FORCE (eV/Angst)
     -0.00001      0.00001      8.72197         0.000092     -0.000159      0.000067
     -0.00000      0.00001      4.36099         0.000092     -0.000159      0.000067
     -0.00002      1.66293      0.97626         0.000467      0.000081     -0.450114
      1.44012      0.83148      5.33724        -0.000304     -0.000364     -0.450114
      0.00000      1.66289      3.38473         0.000156      0.000621      0.449983
      1.44015      0.83145      7.74572        -0.000616      0.000176      0.449983
     -0.00000      1.66293      2.18049        -0.000046     -0.000156      0.000063
      1.44011      0.83147      6.54148         0.000158     -0.000039      0.000063
    total drift:                                0.000008      0.000007     -0.000245

  FREE ENERGIE OF THE ION-ELECTRON SYSTEM (eV)
  free  energy   TOTEN  =       -48.89447973 eV

  energy  without entropy=      -48.89447969  energy(sigma->0) =      -48.89447971

 stress matrix after NEB project (eV)
     -3.13703     -0.01490      0.00038
     -0.01490     -3.11982     -0.00066
      0.00038     -0.00066     -3.50390
  FORCES: max atom, RMS     0.450114    0.318232
  FORCE total and by dimension    0.900097    0.450114
  Stress total and by dimension    5.643755    3.503905

[...]

 d Force =-0.7114739E-02[-0.525E-01, 0.383E-01]  d Energy =-0.4988299E-02-0.213E-02
 d Force =-0.1890295E+02[-0.197E+02,-0.181E+02]  d Ewald  = 0.3326849E+02-0.522E+02

 stress matrix after NEB project (eV)
      3.73383     -0.00139     -0.00015
     -0.00139      3.73543      0.00026
     -0.00015      0.00026      2.77133
  FORCES: max atom, RMS     0.617507    0.436591
  FORCE total and by dimension    1.234866    0.617505
  Stress total and by dimension    5.964497    3.735431
 Steepest descent step on ions:
 trial-energy change:    0.004988  1 .order    0.010963   -0.231163    0.253089
  (g-gl).g = 0.231E+00      g.g   = 0.231E+00  gl.gl    = 0.000E+00
 g(Force)  = 0.391E-01   g(Stress)= 0.192E+00 ortho     = 0.000E+00
 gamma     =   0.00000
 trial     =   1.00000
 opt step  =   0.49587  (harmonic =   0.47736) maximal distance =0.01076446
 next E    =   -48.952521   (d E  =  -0.05804)

[...]

 Broyden mixing:
  rms(total) = 0.18165E-02    rms(broyden)= 0.17083E-02
  rms(prec ) = 0.19655E-02
  weight for this iteration     100.00

[...]

 eigenvalue-minimisations  :  8612
 total energy-change (2. order) : 0.5676152E-06  (-0.1032652E-05)
 number of electron      43.9999765 magnetization
 augmentation part       12.8202017 magnetization

 Broyden mixing:
  rms(total) = 0.71658E-03    rms(broyden)= 0.36729E-03
  rms(prec ) = 0.42256E-03
  weight for this iteration     100.00
  WARNING: grid for Broyden might be to small

 eigenvalues of (default mixing * dielectric matrix)
  average eigenvalue GAMMA=   1.4348
  2.7517  2.3918  0.4400  1.2085  1.1234  1.1234  1.0049

[...]

--------------------------------------- Iteration      3(   9)  ---------------------------------------

 eigenvalue-minimisations  :  5116
 total energy-change (2. order) :-0.8648385E-08  (-0.7470750E-07)
 number of electron      43.9999765 magnetization
 augmentation part       12.8202017 magnetization

 Free energy of the ion-electron system (eV)
  alpha Z        PSCENC =       138.56788618
  Ewald energy   TEWEN  =     -2585.76768941
  -Hartree energ DENC   =      -966.30069358
  -exchange      EXHF   =         0.00000000
  -V(xc)+E(xc)   XCENC  =       152.48713148
  PAW double counting   =      4043.74427690    -4159.23538772
  entropy T*S    EENTRO =        -0.00000001
  eigenvalues    EBANDS =       -53.17379815
  atomic energy  EATOM  =      3380.72551767
  Solvation  Ediel_sol  =         0.00000000
  free energy    TOTEN  =       -48.95275662 eV

  energy without entropy =      -48.95275662  energy(sigma->0) =      -48.95275662

 average (electrostatic) potential at core
  the test charge radii are     1.0452  0.7215  0.5201
  (the norm of the test charge is              1.0000)
       1 -83.2632       2 -83.2632       3 -70.7737       4 -70.7737       5 -70.7737
       6 -70.7737       7 -32.4676       8 -32.4676

 E-fermi :   5.9085     XC(G=0): -11.4856     alpha+bet :-12.1517

[...]

 k-point   138 :      -0.2727    0.4545    0.5000
  band No.  band energies     occupation
      1     -14.4395      2.00000
      2     -14.4395      2.00000
      3     -13.2465      2.00000
      4     -13.2464      2.00000
      5      -2.9584      2.00000
      6      -2.9583      2.00000
      7      -1.0840      2.00000
      8      -1.0839      2.00000
      9      -0.0371      2.00000
     10      -0.0371      2.00000
     11       0.3557      2.00000
     12       0.3557      2.00000
     13       1.1292      2.00000
     14       1.1292      2.00000
     15       1.9056      2.00000
     16       1.9057      2.00000
     17       4.5691      2.00000
     18       4.5691      2.00000
     19       4.9158      2.00000
     20       4.9158      2.00000
     21       5.1427      2.00000
     22       5.1427      2.00000
     23       6.7611      0.00000
     24       6.7612      0.00000
     25       7.0101      0.00000
     26       7.0102      0.00000
     27      14.9095      0.00000
     28      14.9095      0.00000

 soft charge-density along one line, spin component           1
         0         1         2         3         4         5         6         7         8         9
 total charge-density along one line

------------------------ aborting loop because EDIFF is reached ----------------------------------------

  FORCE on cell =-STRESS in cart. coord.  units (eV):
  Direction    XX          YY          ZZ          XY          YZ          ZX
  Alpha Z   138.56789   138.56789   138.56789
  Ewald    -618.44862  -618.49005 -1348.83310     0.03588    -0.01164     0.00672
  Hartree   518.68983   518.66791   -71.04971     0.01897    -0.00510     0.00294
  E(xc)    -218.80357  -218.80347  -217.71260     0.00043     0.00007     0.00020
  Local    -752.00981  -751.94599   584.50519    -0.06242     0.01532    -0.01050
  n-local  -109.21103  -108.13463  -112.59582     0.30800     0.00199     0.00966
  augment   336.23438   336.23443   339.88512     0.00207     0.00035     0.00014
  Kinetic   705.36575   703.78122   686.78729    -0.46142    -0.00418    -0.00844
  Fock        0.00000     0.00000     0.00000     0.00000     0.00000     0.00000
  Total       0.12609     0.13606    -0.44575    -0.00864    -0.00027     0.00015
  in kB       3.31976     3.58241   -11.73629    -0.22746    -0.00703     0.00407

 VOLUME and BASIS-vectors are now :
  energy-cutoff  :      400.00
  volume of cell :       60.85
      direct lattice vectors                 reciprocal lattice vectors
     2.853236458 -0.000128089  0.000002330     0.350488273  0.202354499 -0.000000000
    -1.426729157  2.471167389 -0.000004659     0.000018167  0.404677532  0.000000551
     0.000006784 -0.000011750  8.630588600    -0.000000095  0.000000164  0.115866953

  length of vectors
     2.853236461  2.853458315  8.630588600     0.404708998  0.404677532  0.115866953

 FORCES acting on ions
    electron-ion (+dipol)            ewald-force                    non-local-force                 convergence-correction
   0.843E-04 -.143E-03 0.849E-04   -.771E-04 0.129E-03 -.139E-03   -.677E-05 0.115E-04 -.322E-04   0.206E-06 -.395E-06 0.188E-04
   0.820E-04 -.147E-03 0.825E-04   -.753E-04 0.133E-03 -.145E-03   -.658E-05 0.116E-04 -.322E-04   0.239E-06 -.376E-06 0.188E-04
   0.167E-01 0.108E-01 -.219E+03   -.190E-01 -.123E-01 0.222E+03   0.189E-02 0.112E-02 -.279E+01   0.114E-04 0.561E-05 -.123E-02
   -.180E-01 -.921E-02 -.219E+03   0.201E-01 0.103E-01 0.222E+03   -.191E-02 -.108E-02 -.279E+01   -.106E-04 -.705E-05 -.123E-02
   0.177E-01 0.974E-02 0.219E+03   -.197E-01 -.111E-01 -.222E+03   0.170E-02 0.145E-02 0.279E+01   0.101E-04 0.781E-05 0.124E-02
   -.170E-01 -.102E-01 0.219E+03   0.194E-01 0.115E-01 -.222E+03   -.211E-02 -.749E-03 0.279E+01   -.118E-04 -.482E-05 0.124E-02
   0.836E-03 -.463E-03 0.565E-03   -.831E-03 0.447E-03 -.636E-03   0.317E-04 -.427E-04 0.832E-04   0.430E-06 0.281E-06 -.327E-05
   -.166E-04 -.955E-03 0.567E-03   0.279E-04 0.944E-03 -.637E-03   0.211E-04 -.488E-04 0.832E-04   -.459E-06 -.232E-06 -.327E-05
   0.396E-03 -.665E-03 0.533E-03   -.130E-13 0.228E-13 0.462E-13   -.386E-03 0.669E-03 -.569E-03   -.475E-06 0.823E-06 0.386E-04

 POSITION                                       TOTAL-FORCE (eV/Angst)
     -0.00000      0.00000      0.00000         0.000001     -0.000002     -0.000073
      0.00000     -0.00001      4.31530         0.000001     -0.000002     -0.000073
     -0.00008      1.64741      0.95560        -0.000212     -0.000304      0.040583
      1.42658      0.82364      5.27090         0.000369      0.000031      0.040583
     -0.00006      1.64739      3.35968        -0.000405      0.000030     -0.040519
      1.42659      0.82361      7.67498         0.000176      0.000366     -0.040519
     -0.00007      1.64741      2.15765         0.000037     -0.000058      0.000009
      1.42658      0.82364      6.47294         0.000032     -0.000061      0.000009
    total drift:                                0.000009      0.000005      0.000002

  FREE ENERGIE OF THE ION-ELECTRON SYSTEM (eV)
  free  energy   TOTEN  =       -48.95275662 eV

  energy  without entropy=      -48.95275662  energy(sigma->0) =      -48.95275662

 d Force = 0.1456067E-01[ 0.179E-02, 0.273E-01]  d Energy = 0.6326519E-01-0.487E-01
 d Force = 0.1004538E+02[ 0.983E+01, 0.103E+02]  d Ewald  =-0.1664663E+02 0.267E+02

 stress matrix after NEB project (eV)
      0.12609     -0.00864      0.00015
     -0.00864      0.13606     -0.00027
      0.00015     -0.00027     -0.44575
  FORCES: max atom, RMS     0.040584    0.028675
  FORCE total and by dimension    0.081106    0.040583
  Stress total and by dimension    0.482960    0.445748

 reached required accuracy - stopping structural energy minimisation