 vasp.5.4.4.18Apr17-6-g9f103f2a35 (build Apr 13 2025 12:23:30) complex

 executed on             LinuxIFC date 2025.04.17  14:00:13

 INCAR:
 POTCAR:    PAW_PBE Co 02Aug2007
 POTCAR:    PAW_PBE O 08Apr2002
 POTCAR:    PAW_PBE H 15Jun2001
 POTCAR:    PAW_PBE Co 02Aug2007
   VRHFIN =Co: d8 s1

   TITEL  = PAW_PBE Co 02Aug2007
   POMASS =   58.933; ZVAL   =    9.000    mass and valenz
   ENMAX  =  267.968; ENMIN  =  200.976 eV

   TITEL  = PAW_PBE O 08Apr2002
   POMASS =   16.000; ZVAL   =    6.000    mass and valenz
   ENMAX  =  400.000; ENMIN  =  300.000 eV

   TITEL  = PAW_PBE H 15Jun2001
   POMASS =    1.000; ZVAL   =    1.000    mass and valenz
   ENMAX  =  250.000; ENMIN  =  200.000 eV

  PAW_PBE Co 02Aug2007                  :
  PAW_PBE O 08Apr2002                   :
  PAW_PBE H 15Jun2001                   :

 POSCAR: Co O  H
  positions in cartesian coordinates
 exchange correlation table for  LEXCH =        8
   RHO(1)=    0.500       N(1)  =     2000
   RHO(2)=  100.500       N(2)  =     4000

 VTST: version 3.2, (02/03/18)

 CHAIN: initializing optimizer

 OPT: Using VASP Conjugate-Gradient optimizer
 CHAIN: Read ICHAIN            0

 POSCAR: Co O  H
  positions in cartesian coordinates

 ion  position               nearest neighbor table
   1  0.000  0.000  0.000-   8 1.93   6 1.93   6 1.93   6 1.93   8 1.93   8 1.93
   2  0.667  0.333  0.333-   4 1.93   9 1.93   9 1.93   4 1.93   4 1.93   9 1.93
   3  0.333  0.667  0.667-   7 1.93   7 1.93   7 1.93   5 1.93   5 1.93   5 1.93
   4  0.000  0.000  0.408-  10 1.20   2 1.93   2 1.93   2 1.93
   5  0.667  0.333  0.741-  11 1.20   3 1.93   3 1.93   3 1.93
   6  0.333  0.667  0.075-  12 1.20   1 1.93   1 1.93   1 1.93
   7  0.000  0.000  0.592-  10 1.20   3 1.93   3 1.93   3 1.93
   8  0.667  0.333  0.925-  11 1.20   1 1.93   1 1.93   1 1.93
   9  0.333  0.667  0.259-  12 1.20   2 1.93   2 1.93   2 1.93
  10  0.000  0.000  0.500-   7 1.20   4 1.20
  11  0.667  0.333  0.833-   8 1.20   5 1.20
  12  0.333  0.667  0.167-   9 1.20   6 1.20

  LATTYP: Found a hexagonal cell.
 ALAT       =     2.8810043399
 C/A-ratio  =     4.5401398224

  Lattice vectors:

 A1 = (   2.8810043399,  -0.0000000000,  -0.0000000000)
 A2 = (  -1.4405021700,   2.4950229468,  -0.0000000000)
 A3 = (  -0.0000000000,  -0.0000000000,  13.0801625323)

Analysis of symmetry for initial positions (statically):
 Subroutine PRICEL returns following result:

  LATTYP: Found a trigonal (rhomboedric) cell.
 ALAT       =     4.6665620150
 COS(alpha) =     0.8094259581

[...]

   3 primitive cells build up your supercell.

 Routine SETGRP: Setting up the symmetry group for a
 hexagonal supercell.

 Subroutine GETGRP returns: Found 12 space group operations
 (whereof 12 operations were pure point group operations)
 out of a pool of 24 trial point group operations.

The static configuration has the point symmetry D_3d.

Analysis of symmetry for dynamics (positions and initial velocities):
 Subroutine PRICEL returns following result:

  LATTYP: Found a trigonal (rhomboedric) cell.
 ALAT       =     4.6665620150
 COS(alpha) =     0.8094259581

  Lattice vectors:

 A1 = (   1.4405021699,   0.8316743068,   4.3600541723)
 A2 = (  -1.4405021699,   0.8316743200,   4.3600541800)
 A3 = (   0.0000000000,  -1.6633486268,   4.3600541800)

   3 primitive cells build up your supercell.

 Routine SETGRP: Setting up the symmetry group for a
 hexagonal supercell.

 Subroutine GETGRP returns: Found 12 space group operations
 (whereof 12 operations were pure point group operations)
 out of a pool of 24 trial point group operations.

The dynamic configuration has the point symmetry D_3d.

 Subroutine INISYM returns: Found 12 space group operations
 (whereof 12 operations are pure point group operations),
 and found     3 'primitive' translations

 KPOINTS: KPOINTS created by Atomic Simulation Env

Automatic generation of k-mesh.
Space group operators:
 irot       det(A)        alpha          n_x          n_y          n_z        tau_x        tau_y        tau_z
    1     1.000000     0.000001     1.000000     0.000000     0.000000     0.000000     0.000000     0.000000
    2    -1.000000     0.000001     1.000000     0.000000     0.000000     0.000000     0.000000     0.000000
    3     1.000000   120.000000    -0.000000     0.000000    -1.000000     0.000000     0.000000     0.000000
    4    -1.000000   120.000000    -0.000000     0.000000    -1.000000     0.000000     0.000000     0.000000
    5     1.000000   120.000000    -0.000000     0.000000     1.000000     0.000000     0.000000     0.000000
    6    -1.000000   120.000000    -0.000000     0.000000     1.000000     0.000000     0.000000     0.000000
    7     1.000000   180.000000     1.000000    -0.000000     0.000000     0.000000     0.000000     0.000000
    8    -1.000000   180.000000     1.000000    -0.000000     0.000000     0.000000     0.000000     0.000000
    9     1.000000   180.000000    -0.500000     0.866025     0.000000     0.000000     0.000000     0.000000
   10    -1.000000   180.000000    -0.500000     0.866025     0.000000     0.000000     0.000000     0.000000
   11     1.000000   180.000000     0.500000     0.866025     0.000000     0.000000     0.000000     0.000000
   12    -1.000000   180.000000     0.500000     0.866025     0.000000     0.000000     0.000000     0.000000

 Subroutine IBZKPT returns following result:

 Found     32 irreducible k-points:

 Following reciprocal coordinates:
            Coordinates               Weight
  0.000000  0.000000  0.000000      1.000000
  0.090909 -0.000000  0.000000      6.000000
  0.181818 -0.000000  0.000000      6.000000
  0.272727  0.000000  0.000000      6.000000
  0.363636 -0.000000  0.000000      6.000000
  0.454545  0.000000  0.000000      6.000000
  0.090909  0.090909  0.000000      6.000000
  0.181818  0.090909  0.000000     12.000000
  0.272727  0.090909  0.000000     12.000000
  0.363636  0.090909  0.000000     12.000000
  0.454545  0.090909  0.000000      6.000000
  0.181818  0.181818  0.000000      6.000000
  0.272727  0.181818  0.000000     12.000000
  0.363636  0.181818  0.000000     12.000000
  0.272727  0.272727  0.000000      6.000000
  0.363636  0.272727  0.000000      6.000000
  0.000000  0.000000  0.500000      1.000000
  0.090909  0.000000  0.500000      6.000000
  0.181818 -0.000000  0.500000      6.000000
  0.272727  0.000000  0.500000      6.000000
  0.363636 -0.000000  0.500000      6.000000
  0.454545  0.000000  0.500000      6.000000
  0.090909  0.090909  0.500000      6.000000
  0.181818  0.090909  0.500000     12.000000
  0.272727  0.090909  0.500000     12.000000
  0.363636  0.090909  0.500000     12.000000
  0.454545  0.090909  0.500000      6.000000
  0.181818  0.181818  0.500000      6.000000
  0.272727  0.181818  0.500000     12.000000
  0.363636  0.181818  0.500000     12.000000
  0.272727  0.272727  0.500000      6.000000
  0.363636  0.272727  0.500000      6.000000

 Following cartesian coordinates:
            Coordinates               Weight
  0.000000  0.000000  0.000000      1.000000
  0.031555  0.018218  0.000000      6.000000
  0.063109  0.036436  0.000000      6.000000
  0.094664  0.054654  0.000000      6.000000
  0.126219  0.072872  0.000000      6.000000
  0.157773  0.091090  0.000000      6.000000
  0.031555  0.054654  0.000000      6.000000
  0.063109  0.072872  0.000000     12.000000
  0.094664  0.091090  0.000000     12.000000
  0.126219  0.109309  0.000000     12.000000
  0.157773  0.127527  0.000000      6.000000
  0.063109  0.109309  0.000000      6.000000
  0.094664  0.127527  0.000000     12.000000
  0.126219  0.145745  0.000000     12.000000
  0.094664  0.163963  0.000000      6.000000
  0.126219  0.182181  0.000000      6.000000
  0.000000  0.000000  0.038226      1.000000
  0.031555  0.018218  0.038226      6.000000
  0.063109  0.036436  0.038226      6.000000
  0.094664  0.054654  0.038226      6.000000
  0.126219  0.072872  0.038226      6.000000
  0.157773  0.091090  0.038226      6.000000
  0.031555  0.054654  0.038226      6.000000
  0.063109  0.072872  0.038226     12.000000
  0.094664  0.091090  0.038226     12.000000
  0.126219  0.109309  0.038226     12.000000
  0.157773  0.127527  0.038226      6.000000
  0.063109  0.109309  0.038226      6.000000
  0.094664  0.127527  0.038226     12.000000
  0.126219  0.145745  0.038226     12.000000
  0.094664  0.163963  0.038226      6.000000
  0.126219  0.182181  0.038226      6.000000

 SYSTEM =  unknown system
 POSCAR =  Co O  H

 Startparameter for this run:
   NWRITE =      2    write-flag & timer
   PREC   = normal    normal or accurate (medium, high low for compatibility)
   ISTART =      0    job   : 0-new  1-cont  2-samecut
   ICHARG =      2    charge: 1-file 2-atom 10-const
   ISPIN  =      1    spin polarized calculation?
   LNONCOLLINEAR =      F non collinear calculations
   LSORBIT =      F    spin-orbit coupling
   INIWAV =      1    electr: 0-lowe 1-rand  2-diag
   LASPH  =      F    aspherical Exc in radial PAW
   METAGGA=      F    non-selfconsistent MetaGGA calc.

 Electronic Relaxation 1
   ENCUT  =  400.0 eV  29.40 Ry    5.42 a.u.   4.70  4.70 21.33*2*pi/ulx,y,z
   ENINI  =  400.0     initial cutoff
   ENAUG  =  605.4 eV  augmentation charge cutoff
   NELM   =     60;   NELMIN=  4; NELMDL= -5     # of ELM steps
   EDIFF  = 0.1E-05   stopping-criterion for ELM
   LREAL  =      F    real-space projection
   NLSPLINE    = F    spline interpolate recip. space projectors
   LCOMPAT=      F    compatible to vasp.4.4
   GGA_COMPAT  = T    GGA compatible to vasp.4.4-vasp.4.6
   LMAXPAW     = -100 max onsite density
   LMAXMIX     =    2 max onsite mixed and CHGCAR
   VOSKOWN=      0    Vosko Wilk Nusair interpolation
   ROPT   =    0.00000   0.00000   0.00000
 Ionic relaxation
   EDIFFG = 0.1E-01   stopping-criterion for IOM
   NSW    =     20    number of steps for IOM
   NBLOCK =      1;   KBLOCK =     20    inner block; outer block
   IBRION =      2    ionic relax: 0-MD 1-quasi-New 2-CG
   NFREE  =      1    steps in history (QN), initial steepest desc. (CG)
   ISIF   =      3    stress and relaxation
   IWAVPR =     11    prediction:  0-non 1-charg 2-wave 3-comb
   ISYM   =      2    0-nonsym 1-usesym 2-fastsym
   LCORR  =      T    Harris-Foulkes like correction to forces

   POTIM  = 0.5000    time-step for ionic-motion
   TEIN   =    0.0    initial temperature
   TEBEG  =    0.0;   TEEND  =   0.0 temperature during run
   SMASS  =  -3.00    Nose mass-parameter (am)
   estimated Nose-frequenzy (Omega)   =  0.10E-29 period in steps =****** mass=  -0.190E-27a.u.
   SCALEE = 1.0000    scale energy and forces
   NPACO  =    256;   APACO  = 16.0  distance and # of slots for P.C.
   PSTRESS=    0.0 pullay stress

  Mass of Ions in am
   POMASS =  58.93 16.00  1.00
  Ionic Valenz
   ZVAL   =   9.00  6.00  1.00
  Atomic Wigner-Seitz radii
  virtual crystal weights
   VCA    =   1.00  1.00  1.00
   NELECT =      66.0000    total number of electrons
   NUPDOWN=      -1.0000    fix difference up-down

 DOS related values:
   EMIN   =  10.00;   EMAX   =-10.00  energy-range for DOS
   EFERMI =   0.00
[...]

 E-fermi :   5.4534     XC(G=0): -11.3324     alpha+bet :-11.7969

 k-point     1 :       0.0000    0.0000    0.0000
  band No.  band energies     occupation
      1     -15.8550      2.00000
      2     -15.3555      2.00000
      3     -15.3555      2.00000
      4     -14.0690      2.00000
      5     -14.0690      2.00000
      6     -13.2066      2.00000
      7      -4.6306      2.00000
      8      -2.9877      2.00000
      9      -2.9877      2.00000
     10      -0.3609      2.00000
     11      -0.3607      2.00000
     12      -0.3602      2.00000
     13      -0.3600      2.00000
     14      -0.2496      2.00000
     15      -0.2489      2.00000
     16       0.5385      2.00000
     17       0.5385      2.00000
     18       2.5772      2.00000
     19       2.5786      2.00000
     20       2.8336      2.00000
     21       2.8338      2.00000
     22       2.8351      2.00000
     23       2.8353      2.00000
     24       2.9143      2.00000
     25       3.9030      2.00000
     26       3.9030      2.00000
     27       3.9070      2.00000
     28       3.9070      2.00000
     29       3.9072      2.00000
     30       3.9072      2.00000
     31       4.2930      2.00000
     32       4.9266      2.00000
     33       4.9268      2.00000
     34       6.9287      0.00000
     35       6.9289      0.00000
     36       6.9296      0.00000
     37       6.9297      0.00000
     38       7.1091      0.00000
     39       7.1101      0.00000
     40      10.3303      0.00000

[...]

 soft charge-density along one line, spin component           1
         0         1         2         3         4         5         6         7         8         9
 total charge-density along one line

------------------------ aborting loop because EDIFF is reached ----------------------------------------

  FORCE on cell =-STRESS in cart. coord.  units (eV):
  Direction    XX          YY          ZZ          XY          YZ          ZX
  Alpha Z   201.78208   201.78208   201.78208
  Ewald    -943.33413  -943.33413 -1966.45533    -0.00000    -0.00000     0.00000
  Hartree   764.65439   764.65438   -76.96396    -0.00001    -0.00000    -0.00000
  E(xc)    -327.25133  -327.25094  -325.55395     0.00032     0.00017     0.00013
  Local   -1094.14805 -1094.15192   798.24877    -0.00352    -0.00087    -0.00054
  n-local  -164.88223  -166.01659  -170.71080     2.70592    -1.47822    -5.58122
  augment   505.24985   505.25086   509.61754     0.00089     0.00029     0.00014
  Kinetic  1052.90015  1054.65778  1024.76213    -3.92307     2.01699     9.86595
  Fock        0.00000     0.00000     0.00000     0.00000     0.00000     0.00000
  Total      -4.71888    -4.71888    -5.27352    -0.00000     0.00000     0.00000
  in kB     -80.41146   -80.41146   -89.86275    -0.00000     0.00000     0.00000

 VOLUME and BASIS-vectors are now :
  energy-cutoff  :      400.00
  volume of cell :       94.02
      direct lattice vectors                 reciprocal lattice vectors
     2.881004340 -0.000000000 -0.000000000     0.347101178  0.200398959  0.000000000
    -1.440502170  2.495022947 -0.000000000     0.000000000  0.400797917  0.000000000
    -0.000000000 -0.000000000 13.080162532     0.000000000  0.000000000  0.076451649

[...]

 FORCES acting on ions
    electron-ion (+dipol)            ewald-force                    non-local-force                 convergence-correction
   -.453E-09 -.480E-07 0.102E-06   0.435E-08 0.461E-06 0.652E-06   0.326E-21 0.150E-22 0.000E+00   0.118E-12 0.106E-10 -.246E-06
   0.626E-05 -.109E-05 0.516E-03   -.871E-08 -.144E-05 -.294E-05   -.492E-23 -.861E-23 0.000E+00   -.111E-10 0.109E-11 -.147E-03
   -.626E-05 0.182E-05 -.516E-03   0.436E-08 0.980E-06 0.267E-05   0.535E-21 -.286E-22 -.600E-20   0.111E-10 0.199E-11 0.148E-03
   -.104E-03 -.142E-03 -.211E+03   0.429E-08 0.610E-06 0.213E+03   0.196E-16 0.108E-15 -.262E+01   -.940E-08 0.569E-08 0.593E-03
   -.111E-03 -.145E-03 -.211E+03   -.466E-08 -.849E-06 0.213E+03   -.116E-16 0.101E-15 -.262E+01   -.945E-08 0.561E-08 0.772E-03
   -.971E-04 -.146E-03 -.211E+03   0.376E-09 0.239E-06 0.213E+03   -.221E-16 0.101E-15 -.262E+01   -.948E-08 0.573E-08 0.597E-03
   0.104E-03 0.142E-03 0.211E+03   0.363E-09 -.117E-06 -.213E+03   -.161E-16 -.802E-16 0.262E+01   0.940E-08 -.568E-08 -.593E-03
   0.971E-04 0.143E-03 0.211E+03   -.466E-08 -.693E-06 -.213E+03   0.429E-16 -.941E-16 0.262E+01   0.947E-08 -.579E-08 -.598E-03
   0.111E-03 0.141E-03 0.211E+03   0.429E-08 0.809E-06 -.213E+03   0.533E-16 -.941E-16 0.262E+01   0.945E-08 -.567E-08 -.772E-03
   -.291E-10 -.312E-08 0.668E-06   0.535E-10 0.567E-08 -.455E-06   0.451E-23 0.153E-22 0.000E+00   0.210E-14 -.379E-14 0.313E-07
   -.132E-06 -.192E-06 -.191E-03   -.107E-09 -.177E-07 0.444E-06   0.185E-22 -.895E-23 0.000E+00   -.659E-12 -.588E-11 0.172E-04
   0.129E-06 -.131E-06 0.190E-03   0.536E-10 0.121E-07 -.164E-06   -.142E-23 0.455E-23 -.799E-21   0.622E-12 0.192E-11 -.172E-04
   -.705E-07 -.749E-05 -.288E-05   -.112E-13 -.337E-13 0.639E-13   0.659E-16 0.416E-16 -.178E-14   -.102E-11 -.109E-09 -.738E-09

 POSITION                                       TOTAL-FORCE (eV/Angst)
      0.00000      0.00000      0.00000        -0.000000     -0.000000     -0.000000
      1.44050      0.83167      4.36005        -0.000000     -0.000000     -0.000000
     -0.00000      1.66335      8.72011        -0.000000     -0.000000     -0.000000
     -0.00000     -0.00000      5.33556         0.000000      0.000000     -0.425579
      1.44050      0.83167      9.69561         0.000000      0.000000     -0.425579
     -0.00000      1.66335      0.97550         0.000000      0.000000     -0.425579
     -0.00000     -0.00000      7.74461        -0.000000     -0.000000      0.425579
      1.44050      0.83167     12.10466        -0.000000     -0.000000      0.425579
     -0.00000      1.66335      3.38455        -0.000000     -0.000000      0.425579
     -0.00000     -0.00000      6.54008        -0.000000     -0.000000     -0.000000
      1.44050      0.83167     10.90014        -0.000000     -0.000000     -0.000000
     -0.00000      1.66335      2.18003        -0.000000     -0.000000     -0.000000
    total drift:                               -0.000000     -0.000007     -0.000003

  FREE ENERGIE OF THE ION-ELECTRON SYSTEM (eV)
  free  energy   TOTEN  =       -73.37331147 eV

  energy  without entropy=      -73.37331143  energy(sigma->0) =      -73.37331145

 stress matrix after NEB project (eV)
     -4.71888     -0.00000      0.00000
     -0.00000     -4.71888      0.00000
     -0.00000      0.00000     -5.27352
  FORCES: max atom, RMS     0.425579    0.300930
  FORCE total and by dimension    1.042452    0.425579
  Stress total and by dimension    8.505627    5.273522

[...]

 d Force =-0.1062632E-01[-0.726E-01, 0.513E-01]  d Energy =-0.4880265E-02-0.575E-02
 d Force =-0.2677318E+02[-0.279E+02,-0.257E+02]  d Ewald  = 0.5185447E+02-0.786E+02

 stress matrix after NEB project (eV)
      5.53194      0.00000     -0.00000
      0.00000      5.53194     -0.00000
     -0.00000     -0.00000      4.21453
  FORCES: max atom, RMS     0.601840    0.425565
  FORCE total and by dimension    1.474202    0.601840
  Stress total and by dimension    8.886335    5.531940
 Steepest descent step on ions:
 trial-energy change:    0.004880  1 .order    0.015055   -0.343271    0.373382
  (g-gl).g = 0.343E+00      g.g   = 0.343E+00  gl.gl    = 0.000E+00
 g(Force)  = 0.524E-01   g(Stress)= 0.291E+00 ortho     = 0.000E+00
 gamma     =   0.00000
 trial     =   1.00000
 opt step  =   0.50029  (harmonic =   0.47899) maximal distance =0.01027147
 next E    =   -73.460453   (d E  =  -0.08714)

[...]

 Broyden mixing:
  rms(total) = 0.17999E-02    rms(broyden)= 0.16783E-02
  rms(prec ) = 0.17667E-02
  weight for this iteration     100.00

[...]

 eigenvalue-minimisations  :  2816
 total energy-change (2. order) :-0.1400033E-05  (-0.1269533E-05)
 number of electron      65.9999951 magnetization
 augmentation part       19.2309950 magnetization

 Broyden mixing:
  rms(total) = 0.71378E-03    rms(broyden)= 0.30519E-03
  rms(prec ) = 0.34545E-03
  weight for this iteration     100.00
  WARNING: grid for Broyden might be to small

 eigenvalues of (default mixing * dielectric matrix)
  average eigenvalue GAMMA=   1.4153
  2.7366  2.4015  0.4402  1.1776  1.1776  0.9868  0.9868

[...]

--------------------------------------- Iteration      3(   9)  ---------------------------------------

 eigenvalue-minimisations  :  1968
 total energy-change (2. order) : 0.2593461E-06  (-0.1094596E-06)
 number of electron      65.9999951 magnetization
 augmentation part       19.2309950 magnetization

 Free energy of the ion-electron system (eV)
  alpha Z        PSCENC =       207.87231569
  Ewald energy   TEWEN  =     -3879.20173015
  -Hartree energ DENC   =     -1448.89782316
  -exchange      EXHF   =         0.00000000
  -V(xc)+E(xc)   XCENC  =       228.72823664
  PAW double counting   =      6065.19390771    -6238.42789271
  entropy T*S    EENTRO =        -0.00000001
  eigenvalues    EBANDS =       -79.81615059
  atomic energy  EATOM  =      5071.08827651
  Solvation  Ediel_sol  =         0.00000000
  free energy    TOTEN  =       -73.46086006 eV

  energy without entropy =      -73.46086005  energy(sigma->0) =      -73.46086005

 average (electrostatic) potential at core
  the test charge radii are     1.0452  0.7215  0.5201
  (the norm of the test charge is              1.0000)
       1 -83.2588       2 -83.2583       3 -83.2583       4 -70.7784       5 -70.7786
       6 -70.7789       7 -70.7784       8 -70.7789       9 -70.7786      10 -32.4666
      11 -32.4672      12 -32.4672

 E-fermi :   5.9049     XC(G=0): -11.4867     alpha+bet :-12.1529

[...]

 k-point    32 :       0.3636    0.2727    0.5000
  band No.  band energies     occupation
      1     -14.2621      2.00000
      2     -14.2387      2.00000
      3     -14.2383      2.00000
      4     -13.1593      2.00000
      5     -13.1590      2.00000
      6     -13.1228      2.00000
      7      -2.7828      2.00000
      8      -2.7826      2.00000
      9      -2.7590      2.00000
     10      -1.2157      2.00000
     11      -0.7724      2.00000
     12      -0.7720      2.00000
     13      -0.5938      2.00000
     14      -0.5935      2.00000
     15      -0.3972      2.00000
     16      -0.1565      2.00000
     17      -0.1561      2.00000
     18       0.0160      2.00000
     19       1.1749      2.00000
     20       1.1752      2.00000
     21       1.3796      2.00000
     22       1.4524      2.00000
     23       1.6161      2.00000
     24       1.6164      2.00000
     25       4.5067      2.00000
     26       4.5070      2.00000
     27       4.5151      2.00000
     28       4.8261      2.00000
     29       4.8721      2.00000
     30       4.8722      2.00000
     31       5.1802      2.00000
     32       5.1803      2.00000
     33       5.2654      2.00000
     34       6.7026      0.00000
     35       6.7131      0.00000
     36       6.7134      0.00000
     37       6.9968      0.00000
     38       6.9970      0.00000
     39       7.0262      0.00000
     40      16.2086      0.00000

 soft charge-density along one line, spin component           1
         0         1         2         3         4         5         6         7         8         9
 total charge-density along one line

------------------------ aborting loop because EDIFF is reached ----------------------------------------

  FORCE on cell =-STRESS in cart. coord.  units (eV):
  Direction    XX          YY          ZZ          XY          YZ          ZX
  Alpha Z   207.87232   207.87232   207.87232
  Ewald    -927.27390  -927.27390 -2024.66004    -0.00000    -0.00000     0.00000
  Hartree   778.13457   778.13457  -107.36181    -0.00001    -0.00000    -0.00000
  E(xc)    -328.20315  -328.20281  -326.57080     0.00028     0.00015     0.00011
  Local   -1128.52129 -1128.52563   879.01675    -0.00390    -0.00101    -0.00063
  n-local  -162.43562  -163.62787  -168.92892     2.88359    -1.49448    -5.67181
  augment   504.35976   504.36073   509.82012     0.00084     0.00026     0.00012
  Kinetic  1055.95783  1057.71974  1030.17666    -3.97769     2.03308    10.04963
  Fock        0.00000     0.00000     0.00000     0.00000     0.00000     0.00000
  Total       0.17383     0.17383    -0.63573     0.00000    -0.00000    -0.00000
  in kB       3.05158     3.05158   -11.16002     0.00000    -0.00000    -0.00000

 VOLUME and BASIS-vectors are now :
  energy-cutoff  :      400.00
  volume of cell :       91.27
      direct lattice vectors                 reciprocal lattice vectors
     2.853660853 -0.000000000 -0.000000000     0.350427066  0.202319161  0.000000000
    -1.426830426  2.471342792 -0.000000000     0.000000000  0.404638322  0.000000000
    -0.000000000 -0.000000000 12.941427894     0.000000000  0.000000000  0.077271226

  length of vectors
     2.853660853  2.853660853 12.941427894     0.404638322  0.404638322  0.077271226

 FORCES acting on ions
    electron-ion (+dipol)            ewald-force                    non-local-force                 convergence-correction
   -.475E-09 -.503E-07 0.102E-06   0.452E-08 0.479E-06 0.677E-06   -.262E-21 0.120E-20 0.000E+00   0.117E-13 0.204E-11 -.147E-07
   0.106E-05 0.324E-06 0.158E-02   -.905E-08 -.150E-05 -.300E-05   -.585E-21 -.120E-20 0.000E+00   0.517E-10 -.363E-10 -.259E-04
   -.105E-05 0.446E-06 -.158E-02   0.454E-08 0.102E-05 0.267E-05   -.312E-21 0.125E-20 -.482E-20   -.516E-10 0.392E-10 0.259E-04
   -.955E-04 -.129E-03 -.219E+03   0.446E-08 0.633E-06 0.222E+03   -.497E-16 0.526E-16 -.277E+01   0.176E-08 -.122E-08 -.909E-03
   -.103E-03 -.128E-03 -.219E+03   -.486E-08 -.884E-06 0.222E+03   0.267E-16 0.734E-16 -.277E+01   0.178E-08 -.126E-08 -.869E-03
   -.889E-04 -.133E-03 -.219E+03   0.402E-09 0.250E-06 0.222E+03   0.232E-16 0.318E-16 -.277E+01   0.172E-08 -.124E-08 -.935E-03
   0.955E-04 0.129E-03 0.219E+03   0.389E-09 -.120E-06 -.222E+03   0.136E-15 -.387E-16 0.277E+01   -.176E-08 0.122E-08 0.909E-03
   0.888E-04 0.130E-03 0.219E+03   -.485E-08 -.723E-06 -.222E+03   0.102E-15 -.387E-16 0.277E+01   -.172E-08 0.125E-08 0.935E-03
   0.103E-03 0.124E-03 0.219E+03   0.446E-08 0.842E-06 -.222E+03   0.184E-16 0.294E-17 0.277E+01   -.178E-08 0.127E-08 0.869E-03
   -.298E-10 -.320E-08 0.671E-06   0.549E-10 0.583E-08 -.463E-06   -.330E-22 0.303E-22 0.000E+00   -.143E-14 -.106E-13 0.186E-08
   -.133E-06 -.176E-06 -.196E-03   -.110E-09 -.182E-07 0.453E-06   -.253E-24 -.306E-22 0.000E+00   0.241E-11 0.315E-12 0.756E-05
   0.130E-06 -.144E-06 0.196E-03   0.551E-10 0.124E-07 -.167E-06   -.286E-22 0.185E-22 0.373E-21   -.240E-11 0.181E-12 -.756E-05
   -.692E-07 -.735E-05 -.284E-05   -.217E-13 -.106E-13 0.153E-12   0.257E-15 0.833E-16 0.444E-15   0.253E-12 0.230E-10 -.281E-09

 POSITION                                       TOTAL-FORCE (eV/Angst)
     -0.00000     -0.00000     -0.00000        -0.000000      0.000000      0.000000
      1.42683      0.82378      4.31381        -0.000000      0.000000      0.000000
     -0.00000      1.64756      8.62762        -0.000000      0.000000     -0.000000
     -0.00000     -0.00000      5.26902        -0.000000     -0.000000      0.050485
      1.42683      0.82378      9.58283        -0.000000     -0.000000      0.050485
     -0.00000      1.64756      0.95521        -0.000000     -0.000000      0.050485
     -0.00000     -0.00000      7.67241         0.000000      0.000000     -0.050485
      1.42683      0.82378     11.98621         0.000000      0.000000     -0.050485
     -0.00000      1.64756      3.35860         0.000000      0.000000     -0.050485
     -0.00000     -0.00000      6.47071        -0.000000      0.000000      0.000000
      1.42683      0.82378     10.78452        -0.000000      0.000000      0.000000
     -0.00000      1.64756      2.15690        -0.000000      0.000000     -0.000000
    total drift:                               -0.000000     -0.000007     -0.000003

  FREE ENERGIE OF THE ION-ELECTRON SYSTEM (eV)
  free  energy   TOTEN  =       -73.46086006 eV

  energy  without entropy=      -73.46086005  energy(sigma->0) =      -73.46086005

 d Force = 0.2029511E-01[ 0.314E-02, 0.374E-01]  d Energy = 0.9242885E-01-0.721E-01
 d Force = 0.1409729E+02[ 0.138E+02, 0.144E+02]  d Ewald  =-0.2577027E+02 0.399E+02

 stress matrix after NEB project (eV)
      0.17383      0.00000     -0.00000
      0.00000      0.17383     -0.00000
      0.00000     -0.00000     -0.63573
  FORCES: max atom, RMS     0.050485    0.035698
  FORCE total and by dimension    0.123662    0.050485
  Stress total and by dimension    0.681606    0.635729

 reached required accuracy - stopping structural energy minimisation