 vasp.5.4.4.18Apr17-6-g9f103f2a35 (build Apr 13 2025 12:23:30) complex

 executed on             LinuxIFC date 2025.04.17  14:00:12

 INCAR:
 POTCAR:    PAW_PBE Co 02Aug2007
 POTCAR:    PAW_PBE O 08Apr2002
 POTCAR:    PAW_PBE Co 02Aug2007
   VRHFIN =Co: d8 s1

   TITEL  = PAW_PBE Co 02Aug2007
   POMASS =   58.933; ZVAL   =    9.000    mass and valenz
   ENMAX  =  267.968; ENMIN  =  200.976 eV

   TITEL  = PAW_PBE O 08Apr2002
   POMASS =   16.000; ZVAL   =    6.000    mass and valenz
   ENMAX  =  400.000; ENMIN  =  300.000 eV

  PAW_PBE Co 02Aug2007                  :
  PAW_PBE O 08Apr2002                   :

 POSCAR: Co O
  positions in cartesian coordinates
 exchange correlation table for  LEXCH =        8
   RHO(1)=    0.500       N(1)  =     2000
   RHO(2)=  100.500       N(2)  =     4000

 VTST: version 3.2, (02/03/18)

 CHAIN: initializing optimizer

 OPT: Using VASP Conjugate-Gradient optimizer
 CHAIN: Read ICHAIN            0

 POSCAR: Co O
  positions in cartesian coordinates

 ion  position               nearest neighbor table
   1  0.625  0.625  0.625-  31 1.93  40 1.93  47 1.93  26 1.93  38 1.93  50 1.93   4 2.89  12 2.89
                            14 2.89  10 2.89   2 2.89   9 2.89
   2  0.625  0.875  0.875-  27 1.93  48 1.93  45 1.93  32 1.93  50 1.93  38 1.93   3 2.89  13 2.89
                             8 2.89   9 2.89  10 2.89   1 2.89
   3  0.375  0.875  0.125-  29 1.93  39 1.93  48 1.93  54 1.93  28 1.93  45 1.93  11 2.89   8 2.89
                             2 2.89  13 2.89   4 2.89  15 2.89
   4  0.375  0.625  0.375-  25 1.93  40 1.93  47 1.93  54 1.93  39 1.93  30 1.93   1 2.89  12 2.89
                            14 2.89  15 2.89  11 2.89   3 2.89
   5  0.125  0.375  0.875-  41 1.93  44 1.93  43 1.93  55 1.93  46 1.93  53 1.93  13 2.89  10 2.89
                            15 2.89   6 2.89  14 2.89  16 2.89
   6  0.875  0.375  0.125-  41 1.93  51 1.93  33 1.93  36 1.93  42 1.93  53 1.93   7 2.89  10 2.89
                            15 2.89   5 2.89  12 2.89   8 2.89
   7  0.875  0.125  0.375-  37 1.93  34 1.93  49 1.93  36 1.93  42 1.93  56 1.93   6 2.89   9 2.89
                            16 2.89  11 2.89  12 2.89   8 2.89
   8  0.625  0.125  0.125-  42 1.93  34 1.93  51 1.93  29 1.93  48 1.93  27 1.93  12 2.89   3 2.89
                            13 2.89   2 2.89   6 2.89   7 2.89
   9  0.875  0.875  0.625-  35 1.93  49 1.93  56 1.93  26 1.93  38 1.93  32 1.93   7 2.89  11 2.89
                            16 2.89  10 2.89   2 2.89   1 2.89
  10  0.875  0.625  0.875-  33 1.93  43 1.93  53 1.93  50 1.93  32 1.93  26 1.93   5 2.89   6 2.89
                            15 2.89   2 2.89   9 2.89   1 2.89
  11  0.125  0.875  0.375-  37 1.93  30 1.93  35 1.93  54 1.93  28 1.93  56 1.93   3 2.89   9 2.89
                            16 2.89   7 2.89  15 2.89   4 2.89
  12  0.625  0.375  0.375-  25 1.93  31 1.93  47 1.93  36 1.93  34 1.93  51 1.93   1 2.89   4 2.89
                            14 2.89   8 2.89   6 2.89   7 2.89
  13  0.375  0.125  0.875-  29 1.93  52 1.93  27 1.93  55 1.93  46 1.93  45 1.93   5 2.89   2 2.89
                             8 2.89   3 2.89  14 2.89  16 2.89
  14  0.375  0.375  0.625-  25 1.93  31 1.93  40 1.93  55 1.93  52 1.93  44 1.93   1 2.89   4 2.89
                            12 2.89  16 2.89  13 2.89   5 2.89
  15  0.125  0.625  0.125-  28 1.93  30 1.93  39 1.93  41 1.93  33 1.93  43 1.93   4 2.89   5 2.89
                             6 2.89  10 2.89   3 2.89  11 2.89
  16  0.125  0.125  0.625-  46 1.93  44 1.93  52 1.93  37 1.93  49 1.93  35 1.93  14 2.89  11 2.89
                             7 2.89   9 2.89  13 2.89   5 2.89
  17  0.000  0.000  0.000-  28 1.97  42 1.97  46 1.97  32 1.97
  18  0.250  0.250  0.250-  25 1.97  29 1.97  37 1.97  41 1.97
  19  0.000  0.500  0.500-  30 1.97  44 1.97  36 1.97  26 1.97
  20  0.750  0.250  0.750-  31 1.97  53 1.97  49 1.97  27 1.97
  21  0.500  0.000  0.500-  34 1.97  52 1.97  54 1.97  38 1.97
  22  0.250  0.750  0.750-  40 1.97  45 1.97  43 1.97  35 1.97
  23  0.500  0.500  0.000-  39 1.97  51 1.97  55 1.97  50 1.97
  24  0.750  0.750  0.250-  47 1.97  56 1.97  48 1.97  33 1.97
  25  0.390  0.390  0.390-   4 1.93  12 1.93  14 1.93  18 1.97
  26  0.860  0.640  0.640-   1 1.93   9 1.93  10 1.93  19 1.97
  27  0.610  0.110  0.890-   2 1.93  13 1.93   8 1.93  20 1.97
  28  0.140  0.860  0.140-  15 1.93  11 1.93   3 1.93  17 1.97
  29  0.390  0.110  0.110-   3 1.93  13 1.93   8 1.93  18 1.97
  30  0.140  0.640  0.360-  11 1.93  15 1.93   4 1.93  19 1.97
  31  0.610  0.390  0.610-   1 1.93  12 1.93  14 1.93  20 1.97
  32  0.860  0.860  0.860-   2 1.93  10 1.93   9 1.93  17 1.97
  33  0.890  0.610  0.110-  10 1.93   6 1.93  15 1.93  24 1.97
  34  0.640  0.140  0.360-   7 1.93   8 1.93  12 1.93  21 1.97
  35  0.110  0.890  0.610-   9 1.93  11 1.93  16 1.93  22 1.97
  36  0.860  0.360  0.360-  12 1.93   7 1.93   6 1.93  19 1.97
  37  0.110  0.110  0.390-   7 1.93  11 1.93  16 1.93  18 1.97
  38  0.640  0.860  0.640-   1 1.93   9 1.93   2 1.93  21 1.97
  39  0.360  0.640  0.140-   3 1.93  15 1.93   4 1.93  23 1.97
  40  0.390  0.610  0.610-   1 1.93   4 1.93  14 1.93  22 1.97
  41  0.110  0.390  0.110-   5 1.93   6 1.93  15 1.93  18 1.97
  42  0.860  0.140  0.140-   8 1.93   7 1.93   6 1.93  17 1.97
  43  0.110  0.610  0.890-  10 1.93   5 1.93  15 1.93  22 1.97
  44  0.140  0.360  0.640-   5 1.93  16 1.93  14 1.93  19 1.97
  45  0.390  0.890  0.890-   2 1.93   3 1.93  13 1.93  22 1.97
  46  0.140  0.140  0.860-  16 1.93  13 1.93   5 1.93  17 1.97
  47  0.610  0.610  0.390-   1 1.93   4 1.93  12 1.93  24 1.97
  48  0.610  0.890  0.110-   2 1.93   3 1.93   8 1.93  24 1.97
  49  0.890  0.110  0.610-   9 1.93   7 1.93  16 1.93  20 1.97
  50  0.640  0.640  0.860-   2 1.93  10 1.93   1 1.93  23 1.97
  51  0.640  0.360  0.140-   6 1.93   8 1.93  12 1.93  23 1.97
  52  0.360  0.140  0.640-  13 1.93  16 1.93  14 1.93  21 1.97
  53  0.890  0.390  0.890-  10 1.93   6 1.93   5 1.93  20 1.97
  54  0.360  0.860  0.360-   4 1.93   3 1.93  11 1.93  21 1.97
  55  0.360  0.360  0.860-  14 1.93  13 1.93   5 1.93  23 1.97
  56  0.890  0.890  0.390-   9 1.93   7 1.93  11 1.93  24 1.97

  LATTYP: Found a simple cubic cell.
 ALAT       =     8.1619898947

  Lattice vectors:

 A1 = (   8.1619898947,   0.0000000000,   0.0000000000)
 A2 = (   0.0000000000,   8.1619898947,   0.0000000000)
 A3 = (   0.0000000000,   0.0000000000,   8.1619898947)

Analysis of symmetry for initial positions (statically):
 Subroutine PRICEL returns following result:

  LATTYP: Found a face centered cubic cell.
 ALAT       =     8.1619898947

[...]

   4 primitive cells build up your supercell.

 Routine SETGRP: Setting up the symmetry group for a
 simple cubic supercell.

 Subroutine GETGRP returns: Found 48 space group operations
 (whereof 24 operations were pure point group operations)
 out of a pool of 48 trial point group operations.

The static configuration has the point symmetry T_d .
 The point group associated with its full space group is O_h .

Analysis of symmetry for dynamics (positions and initial velocities):
 Subroutine PRICEL returns following result:

  LATTYP: Found a face centered cubic cell.
 ALAT       =     8.1619898947

  Lattice vectors:

 A1 = (   4.0809949473,   4.0809949473,   0.0000000000)
 A2 = (   4.0809949473,   0.0000000000,  -4.0809949473)
 A3 = (   0.0000000000,   4.0809949473,  -4.0809949473)

   4 primitive cells build up your supercell.

 Routine SETGRP: Setting up the symmetry group for a
 simple cubic supercell.

 Subroutine GETGRP returns: Found 48 space group operations
 (whereof 24 operations were pure point group operations)
 out of a pool of 48 trial point group operations.

The dynamic configuration has the point symmetry T_d .
 The point group associated with its full space group is O_h .

 Subroutine INISYM returns: Found 48 space group operations
 (whereof 24 operations are pure point group operations),
 and found     4 'primitive' translations

 KPOINTS: KPOINTS created by Atomic Simulation Env

Automatic generation of k-mesh.
Space group operators:
 irot       det(A)        alpha          n_x          n_y          n_z        tau_x        tau_y        tau_z
    1     1.000000     0.000001     1.000000     0.000000     0.000000     0.000000     0.000000     0.000000
    2     1.000000   120.000000    -0.577350    -0.577350    -0.577350     0.000000     0.000000     0.000000
    3     1.000000   120.000000     0.577350     0.577350     0.577350     0.000000     0.000000     0.000000
    4    -1.000000    90.000000     0.000000    -0.000000    -1.000000     0.000000     0.000000     0.000000
    5    -1.000000   180.000000     0.000000    -0.707107    -0.707107     0.000000     0.000000     0.000000
    6    -1.000000    90.000000    -0.000000     1.000000     0.000000     0.000000     0.000000     0.000000
    7     1.000000   180.000000    -0.000000    -0.000000     1.000000     0.000000     0.000000     0.000000
    8     1.000000   120.000000    -0.577350     0.577350     0.577350     0.000000     0.000000     0.000000
    9     1.000000   120.000000    -0.577350     0.577350    -0.577350     0.000000     0.000000     0.000000
   10    -1.000000    90.000000     0.000000    -0.000000     1.000000     0.000000     0.000000     0.000000
   11    -1.000000    90.000000    -1.000000     0.000000    -0.000000     0.000000     0.000000     0.000000
   12    -1.000000   180.000000     0.707107     0.000000     0.707107     0.000000     0.000000     0.000000
   13     1.000000   120.000000     0.577350    -0.577350     0.577350     0.000000     0.000000     0.000000
   14     1.000000   120.000000    -0.577350    -0.577350     0.577350     0.000000     0.000000     0.000000
   15     1.000000   180.000000     1.000000     0.000000     0.000000     0.000000     0.000000     0.000000
   16    -1.000000    90.000000    -0.000000    -1.000000     0.000000     0.000000     0.000000     0.000000
   17    -1.000000   180.000000     0.707107     0.707107    -0.000000     0.000000     0.000000     0.000000
   18    -1.000000    90.000000     1.000000     0.000000    -0.000000     0.000000     0.000000     0.000000
   19     1.000000   120.000000     0.577350    -0.577350    -0.577350     0.000000     0.000000     0.000000
   20     1.000000   180.000000     0.000000    -1.000000     0.000000     0.000000     0.000000     0.000000
   21     1.000000   120.000000     0.577350     0.577350    -0.577350     0.000000     0.000000     0.000000
   22    -1.000000   180.000000    -0.000000     0.707107    -0.707107     0.000000     0.000000     0.000000
   23    -1.000000   180.000000    -0.707107     0.707107    -0.000000     0.000000     0.000000     0.000000
   24    -1.000000   180.000000     0.707107     0.000000    -0.707107     0.000000     0.000000     0.000000
   25    -1.000000     0.000001     1.000000     0.000000     0.000000     0.750000     0.750000    -0.750000
   26    -1.000000   120.000000    -0.577350    -0.577350    -0.577350     0.750000     0.750000    -0.750000
   27    -1.000000   120.000000     0.577350     0.577350     0.577350     0.750000     0.750000    -0.750000
[...]
     24     -11.9533      2.00000
     25     -11.8676      2.00000
     26     -11.8676      2.00000
     27     -11.8676      2.00000
     28     -11.8676      2.00000
     29     -11.8676      2.00000
     30     -11.8676      2.00000
     31     -11.8676      2.00000
     32     -11.8676      2.00000
     33      -0.6010      2.00000
     34      -0.6010      2.00000
     35      -0.6010      2.00000
     36      -0.6010      2.00000
     37      -0.1319      2.00000
     38      -0.1319      2.00000
     39      -0.1319      2.00000
     40      -0.1319      2.00000
     41       0.0473      2.00000
     42       0.0473      2.00000
     43       0.0473      2.00000
     44       0.0473      2.00000
     45       0.0473      2.00000
     46       0.0473      2.00000
     47       0.0473      2.00000
     48       0.0473      2.00000
     49       0.3694      2.00000
     50       0.3694      2.00000
     51       0.3694      2.00000
     52       0.3694      2.00000
     53       0.6169      2.00000
     54       0.6169      2.00000
     55       0.6169      2.00000
     56       0.6169      2.00000
     57       0.6169      2.00000
     58       0.6169      2.00000
     59       0.6169      2.00000
     60       0.6169      2.00000
[...]
    230       8.7461      0.00000
    231       8.7461      0.00000
    232       8.7461      0.00000
    233       8.8133      0.00000
    234       8.8133      0.00000
    235       8.8133      0.00000
    236       8.8133      0.00000
    237       8.8133      0.00000
    238       8.8133      0.00000
    239       8.8133      0.00000
    240       8.8133      0.00000
    241       9.2444      0.00000
    242       9.2444      0.00000
    243       9.2444      0.00000
    244       9.2444      0.00000

 soft charge-density along one line, spin component           1
         0         1         2         3         4         5         6         7         8         9
 total charge-density along one line

------------------------ aborting loop because EDIFF is reached ----------------------------------------

  FORCE on cell =-STRESS in cart. coord.  units (eV):
  Direction    XX          YY          ZZ          XY          YZ          ZX
  Alpha Z  1497.81607  1497.81607  1497.81607
  Ewald   -9421.48358 -9421.48358 -9421.48358    -0.00001    -0.00001    -0.00001
  Hartree  2476.09796  2476.09796  2476.09796    -0.00000    -0.00000    -0.00000
  E(xc)   -2059.59515 -2059.59515 -2059.59515     0.00000     0.00000     0.00000
  Local   -1579.78145 -1579.78145 -1579.78145     0.00001     0.00001     0.00001
  n-local  -890.08172  -888.19229  -887.31992     0.16418     0.07862     0.01858
  augment  3952.30859  3952.30859  3952.30859    -0.00000    -0.00000    -0.00000
  Kinetic  6021.69149  6023.59769  6024.17010     1.84651     2.50342     1.13131
  Fock        0.00000     0.00000     0.00000     0.00000     0.00000     0.00000
  Total      -0.01579    -0.01579    -0.01579    -0.00000    -0.00000     0.00000
  in kB      -0.04964    -0.04964    -0.04964    -0.00000    -0.00000     0.00000

 VOLUME and BASIS-vectors are now :
  energy-cutoff  :      400.00
  volume of cell :      509.55
      direct lattice vectors                 reciprocal lattice vectors
     7.987234504  0.000000000  0.000000000     0.125199780 -0.000000000 -0.000000000
     0.000000000  7.987234504  0.000000000    -0.000000000  0.125199780 -0.000000000
     0.000000000  0.000000000  7.987234504    -0.000000000 -0.000000000  0.125199780

  length of vectors
     7.987234504  7.987234504  7.987234504     0.125199780  0.125199780  0.125199780

 FORCES acting on ions
    electron-ion (+dipol)            ewald-force                    non-local-force                 convergence-correction
   -.201E-05 -.201E-05 -.201E-05   0.870E-06 0.870E-06 0.870E-06   -.112E-22 -.348E-24 -.108E-22   0.805E-10 0.800E-10 0.808E-10
   -.139E-05 0.125E-05 0.125E-05   0.512E-06 -.132E-05 -.132E-05   -.476E-22 0.330E-22 0.145E-22   0.151E-09 -.167E-10 -.159E-10
   -.568E-06 -.619E-07 0.101E-05   -.183E-06 0.619E-08 -.567E-07   -.128E-23 -.140E-22 0.248E-22   -.313E-10 -.324E-10 -.113E-10
   0.437E-07 -.687E-06 0.437E-07   -.696E-06 -.300E-06 -.696E-06   -.581E-23 0.621E-22 0.225E-22   -.107E-10 0.147E-09 -.105E-10
   0.101E-05 -.568E-06 -.619E-07   -.567E-07 -.183E-06 0.619E-08   -.552E-22 0.567E-22 0.447E-22   -.112E-10 -.315E-10 -.332E-10
   -.619E-07 -.568E-06 0.101E-05   0.619E-08 -.183E-06 -.567E-07   0.157E-22 -.331E-22 0.620E-23   -.330E-10 -.320E-10 -.114E-10
   -.619E-07 0.101E-05 -.568E-06   0.619E-08 -.567E-07 -.183E-06   -.347E-22 0.481E-22 -.744E-23   -.331E-10 -.114E-10 -.321E-10
   -.844E-07 0.999E-06 0.999E-06   -.966E-06 -.210E-06 -.211E-06   -.615E-23 0.128E-22 -.527E-23   0.117E-09 -.617E-10 -.610E-10
   0.125E-05 0.125E-05 -.139E-05   -.132E-05 -.132E-05 0.512E-06   -.107E-22 -.246E-22 0.240E-22   -.168E-10 -.169E-10 0.151E-09
   0.125E-05 -.139E-05 0.125E-05   -.132E-05 0.512E-06 -.132E-05   -.397E-22 0.268E-22 -.281E-22   -.167E-10 0.151E-09 -.169E-10
   0.101E-05 -.619E-07 -.568E-06   -.567E-07 0.619E-08 -.183E-06   -.639E-22 -.169E-23 -.271E-22   -.112E-10 -.327E-10 -.322E-10
   -.687E-06 0.437E-07 0.437E-07   -.300E-06 -.696E-06 -.696E-06   -.292E-23 0.296E-22 -.331E-23   0.146E-09 -.112E-10 -.104E-10
   -.568E-06 0.101E-05 -.619E-07   -.183E-06 -.567E-07 0.619E-08   -.455E-22 0.698E-22 -.248E-22   -.313E-10 -.112E-10 -.324E-10
   0.437E-07 0.437E-07 -.687E-06   -.696E-06 -.696E-06 -.300E-06   0.182E-22 -.256E-22 0.285E-22   -.106E-10 -.106E-10 0.147E-09
   0.999E-06 -.844E-07 0.999E-06   -.210E-06 -.966E-06 -.210E-06   0.506E-23 -.213E-22 -.151E-22   -.610E-10 0.118E-09 -.613E-10
   0.999E-06 0.999E-06 -.844E-07   -.210E-06 -.210E-06 -.966E-06   0.354E-22 -.165E-22 0.421E-22   -.610E-10 -.607E-10 0.117E-09
   0.617E-06 0.617E-06 0.617E-06   -.105E-05 -.105E-05 -.105E-05   0.232E-17 -.753E-19 -.325E-18   -.754E-10 -.752E-10 -.743E-10
   -.676E-06 -.676E-06 -.676E-06   0.619E-06 0.619E-06 0.619E-06   -.248E-17 -.177E-17 0.239E-17   -.748E-10 -.758E-10 -.753E-10
   0.617E-06 0.170E-06 0.170E-06   -.105E-05 -.544E-06 -.544E-06   0.394E-17 -.165E-17 0.000E+00   -.753E-10 0.518E-10 0.525E-10
   -.542E-06 -.676E-06 -.542E-06   0.908E-06 0.619E-06 0.908E-06   -.156E-17 0.127E-17 0.434E-18   0.370E-10 -.747E-10 0.368E-10
   0.170E-06 0.617E-06 0.170E-06   -.544E-06 -.105E-05 -.544E-06   0.329E-17 0.521E-18 0.173E-17   0.516E-10 -.748E-10 0.513E-10
   -.676E-06 -.542E-06 -.542E-06   0.619E-06 0.908E-06 0.908E-06   0.503E-18 0.509E-18 -.260E-17   -.749E-10 0.364E-10 0.370E-10
   0.170E-06 0.170E-06 0.617E-06   -.544E-06 -.544E-06 -.105E-05   0.351E-17 0.792E-18 -.325E-18   0.516E-10 0.518E-10 -.754E-10
   -.542E-06 -.542E-06 -.676E-06   0.908E-06 0.908E-06 0.619E-06   -.852E-18 -.264E-17 0.217E-18   0.371E-10 0.377E-10 -.757E-10
   0.716E+02 0.716E+02 0.716E+02   -.744E+02 -.744E+02 -.744E+02   0.273E+01 0.273E+01 0.273E+01   0.200E-02 0.200E-02 0.200E-02
   -.716E+02 0.716E+02 0.716E+02   0.744E+02 -.744E+02 -.744E+02   -.273E+01 0.273E+01 0.273E+01   -.200E-02 0.200E-02 0.200E-02
   -.716E+02 -.716E+02 0.716E+02   0.744E+02 0.744E+02 -.744E+02   -.273E+01 -.273E+01 0.273E+01   -.200E-02 -.200E-02 0.200E-02
   0.716E+02 -.716E+02 0.716E+02   -.744E+02 0.744E+02 -.744E+02   0.273E+01 -.273E+01 0.273E+01   0.200E-02 -.200E-02 0.200E-02
   0.716E+02 -.716E+02 -.716E+02   -.744E+02 0.744E+02 0.744E+02   0.273E+01 -.273E+01 -.273E+01   0.200E-02 -.200E-02 -.200E-02
   0.716E+02 0.716E+02 -.716E+02   -.744E+02 -.744E+02 0.744E+02   0.273E+01 0.273E+01 -.273E+01   0.200E-02 0.200E-02 -.200E-02
   -.716E+02 0.716E+02 -.716E+02   0.744E+02 -.744E+02 0.744E+02   -.273E+01 0.273E+01 -.273E+01   -.200E-02 0.200E-02 -.200E-02
   -.716E+02 -.716E+02 -.716E+02   0.744E+02 0.744E+02 0.744E+02   -.273E+01 -.273E+01 -.273E+01   -.200E-02 -.200E-02 -.200E-02
   0.716E+02 -.716E+02 -.716E+02   -.744E+02 0.744E+02 0.744E+02   0.273E+01 -.273E+01 -.273E+01   0.200E-02 -.200E-02 -.200E-02
   0.716E+02 0.716E+02 -.716E+02   -.744E+02 -.744E+02 0.744E+02   0.273E+01 0.273E+01 -.273E+01   0.200E-02 0.200E-02 -.200E-02
   -.716E+02 0.716E+02 -.716E+02   0.744E+02 -.744E+02 0.744E+02   -.273E+01 0.273E+01 -.273E+01   -.200E-02 0.200E-02 -.200E-02
   -.716E+02 -.716E+02 -.716E+02   0.744E+02 0.744E+02 0.744E+02   -.273E+01 -.273E+01 -.273E+01   -.200E-02 -.200E-02 -.200E-02
   -.716E+02 -.716E+02 0.716E+02   0.744E+02 0.744E+02 -.744E+02   -.273E+01 -.273E+01 0.273E+01   -.200E-02 -.200E-02 0.200E-02
   0.716E+02 -.716E+02 0.716E+02   -.744E+02 0.744E+02 -.744E+02   0.273E+01 -.273E+01 0.273E+01   0.200E-02 -.200E-02 0.200E-02
   -.716E+02 0.716E+02 0.716E+02   0.744E+02 -.744E+02 -.744E+02   -.273E+01 0.273E+01 0.273E+01   -.200E-02 0.200E-02 0.200E-02
   0.716E+02 -.716E+02 -.716E+02   -.744E+02 0.744E+02 0.744E+02   0.273E+01 -.273E+01 -.273E+01   0.200E-02 -.200E-02 -.200E-02
   -.716E+02 0.716E+02 -.716E+02   0.744E+02 -.744E+02 0.744E+02   -.273E+01 0.273E+01 -.273E+01   -.200E-02 0.200E-02 -.200E-02
   -.716E+02 0.716E+02 0.716E+02   0.744E+02 -.744E+02 -.744E+02   -.273E+01 0.273E+01 0.273E+01   -.200E-02 0.200E-02 0.200E-02
   -.716E+02 -.716E+02 0.716E+02   0.744E+02 0.744E+02 -.744E+02   -.273E+01 -.273E+01 0.273E+01   -.200E-02 -.200E-02 0.200E-02
   0.716E+02 -.716E+02 0.716E+02   -.744E+02 0.744E+02 -.744E+02   0.273E+01 -.273E+01 0.273E+01   0.200E-02 -.200E-02 0.200E-02
   0.716E+02 0.716E+02 0.716E+02   -.744E+02 -.744E+02 -.744E+02   0.273E+01 0.273E+01 0.273E+01   0.200E-02 0.200E-02 0.200E-02
   0.716E+02 0.716E+02 -.716E+02   -.744E+02 -.744E+02 0.744E+02   0.273E+01 0.273E+01 -.273E+01   0.200E-02 0.200E-02 -.200E-02
   -.716E+02 -.716E+02 0.716E+02   0.744E+02 0.744E+02 -.744E+02   -.273E+01 -.273E+01 0.273E+01   -.200E-02 -.200E-02 0.200E-02
   -.716E+02 0.716E+02 -.716E+02   0.744E+02 -.744E+02 0.744E+02   -.273E+01 0.273E+01 -.273E+01   -.200E-02 0.200E-02 -.200E-02
   0.716E+02 -.716E+02 -.716E+02   -.744E+02 0.744E+02 0.744E+02   0.273E+01 -.273E+01 -.273E+01   0.200E-02 -.200E-02 -.200E-02
   0.716E+02 0.716E+02 -.716E+02   -.744E+02 -.744E+02 0.744E+02   0.273E+01 0.273E+01 -.273E+01   0.200E-02 0.200E-02 -.200E-02
   0.716E+02 -.716E+02 0.716E+02   -.744E+02 0.744E+02 -.744E+02   0.273E+01 -.273E+01 0.273E+01   0.200E-02 -.200E-02 0.200E-02
   -.716E+02 0.716E+02 0.716E+02   0.744E+02 -.744E+02 -.744E+02   -.273E+01 0.273E+01 0.273E+01   -.200E-02 0.200E-02 0.200E-02
   0.716E+02 0.716E+02 0.716E+02   -.744E+02 -.744E+02 -.744E+02   0.273E+01 0.273E+01 0.273E+01   0.200E-02 0.200E-02 0.200E-02
   -.716E+02 -.716E+02 -.716E+02   0.744E+02 0.744E+02 0.744E+02   -.273E+01 -.273E+01 -.273E+01   -.200E-02 -.200E-02 -.200E-02
   -.716E+02 -.716E+02 -.716E+02   0.744E+02 0.744E+02 0.744E+02   -.273E+01 -.273E+01 -.273E+01   -.200E-02 -.200E-02 -.200E-02
   0.716E+02 0.716E+02 0.716E+02   -.744E+02 -.744E+02 -.744E+02   0.273E+01 0.273E+01 0.273E+01   0.200E-02 0.200E-02 0.200E-02
   0.382E-04 0.382E-04 0.382E-04   0.242E-12 -.327E-12 0.114E-12   0.311E-14 -.844E-14 0.222E-14   0.234E-10 0.230E-10 0.237E-10

 POSITION                                       TOTAL-FORCE (eV/Angst)
      4.99202      4.99202      4.99202        -0.000000      0.000000      0.000000
      4.99202      6.98883      6.98883        -0.000000      0.000000      0.000000
      2.99521      6.98883      0.99840        -0.000000      0.000000      0.000000
      2.99521      4.99202      2.99521        -0.000000      0.000000      0.000000
      0.99840      2.99521      6.98883        -0.000000      0.000000      0.000000
      6.98883      2.99521      0.99840        -0.000000      0.000000      0.000000
      6.98883      0.99840      2.99521        -0.000000      0.000000      0.000000
      4.99202      0.99840      0.99840        -0.000000      0.000000      0.000000
      6.98883      6.98883      4.99202        -0.000000      0.000000      0.000000
      6.98883      4.99202      6.98883        -0.000000      0.000000      0.000000
      0.99840      6.98883      2.99521        -0.000000      0.000000      0.000000
      4.99202      2.99521      2.99521        -0.000000      0.000000      0.000000
      2.99521      0.99840      6.98883        -0.000000      0.000000      0.000000
      2.99521      2.99521      4.99202        -0.000000      0.000000      0.000000
      0.99840      4.99202      0.99840        -0.000000      0.000000      0.000000
      0.99840      0.99840      4.99202        -0.000000      0.000000      0.000000
     -0.00000      0.00000     -0.00000        -0.000000      0.000000      0.000000
      1.99681      1.99681      1.99681        -0.000000      0.000000      0.000000
      0.00000      3.99362      3.99362        -0.000000      0.000000      0.000000
      5.99043      1.99681      5.99043        -0.000000      0.000000      0.000000
      3.99362      0.00000      3.99362        -0.000000      0.000000      0.000000
      1.99681      5.99043      5.99043        -0.000000      0.000000      0.000000
      3.99362      3.99362      0.00000        -0.000000      0.000000      0.000000
      5.99043      5.99043      1.99681        -0.000000      0.000000      0.000000
      3.07169      3.07169      3.07169        -0.002377     -0.002377     -0.002377
      6.91235      5.06850      5.06850         0.002377     -0.002377     -0.002377
      4.91554      0.92192      7.06531         0.002377      0.002377     -0.002377
      1.07489      6.91235      1.07489        -0.002377      0.002377     -0.002377
      3.07169      0.92192      0.92192        -0.002377      0.002377      0.002377
      1.07489      5.06850      2.91873        -0.002377     -0.002377      0.002377
      4.91554      3.07169      4.91554         0.002377     -0.002377      0.002377
      6.91235      6.91235      6.91235         0.002377      0.002377      0.002377
      7.06531      4.91554      0.92192        -0.002377      0.002377      0.002377
      5.06850      1.07489      2.91873        -0.002377     -0.002377      0.002377
      0.92192      7.06531      4.91554         0.002377     -0.002377      0.002377
      6.91235      2.91873      2.91873         0.002377      0.002377      0.002377
      0.92192      0.92192      3.07169         0.002377      0.002377     -0.002377
      5.06850      6.91235      5.06850        -0.002377      0.002377     -0.002377
      2.91873      5.06850      1.07489         0.002377     -0.002377     -0.002377
      3.07169      4.91554      4.91554        -0.002377      0.002377      0.002377
      0.92192      3.07169      0.92192         0.002377     -0.002377      0.002377
      6.91235      1.07489      1.07489         0.002377     -0.002377     -0.002377
      0.92192      4.91554      7.06531         0.002377      0.002377     -0.002377
      1.07489      2.91873      5.06850        -0.002377      0.002377     -0.002377
      3.07169      7.06531      7.06531        -0.002377     -0.002377     -0.002377
      1.07489      1.07489      6.91235        -0.002377     -0.002377      0.002377
      4.91554      4.91554      3.07169         0.002377      0.002377     -0.002377
      4.91554      7.06531      0.92192         0.002377     -0.002377      0.002377
      7.06531      0.92192      4.91554        -0.002377      0.002377      0.002377
      5.06850      5.06850      6.91235        -0.002377     -0.002377      0.002377
      5.06850      2.91873      1.07489        -0.002377      0.002377     -0.002377
      2.91873      1.07489      5.06850         0.002377     -0.002377     -0.002377
      7.06531      3.07169      7.06531        -0.002377     -0.002377     -0.002377
      2.91873      6.91235      2.91873         0.002377      0.002377      0.002377
      2.91873      2.91873      6.91235         0.002377      0.002377      0.002377
      7.06531      7.06531      3.07169        -0.002377     -0.002377     -0.002377
    total drift:                                0.000038      0.000038      0.000038

  FREE ENERGIE OF THE ION-ELECTRON SYSTEM (eV)
  free  energy   TOTEN  =      -379.48850002 eV

  energy  without entropy=     -379.18212058  energy(sigma->0) =     -379.33531030

 d Force = 0.2486275E-03[ 0.112E-03, 0.386E-03]  d Energy = 0.3378509E-02-0.313E-02
 d Force = 0.3495030E+01[ 0.349E+01, 0.350E+01]  d Ewald  = 0.2910414E+02-0.256E+02

 stress matrix after NEB project (eV)
     -0.01579     -0.00000      0.00000
     -0.00000     -0.01579      0.00000
     -0.00000     -0.00000     -0.01579
  FORCES: max atom, RMS     0.004118    0.003113
  FORCE total and by dimension    0.023293    0.002377
  Stress total and by dimension    0.027345    0.015788

 reached required accuracy - stopping structural energy minimisation