 vasp.5.4.4.18Apr17-6-g9f103f2a35 (build Apr 13 2025 12:23:30) complex

 executed on             LinuxIFC date 2025.04.17  14:00:13

 INCAR:
 POTCAR:    PAW_PBE O 08Apr2002
 POTCAR:    PAW_PBE Li 17Jan2003
 POTCAR:    PAW_PBE O 08Apr2002
   VRHFIN =O: s2p4

   TITEL  = PAW_PBE O 08Apr2002
   POMASS =   16.000; ZVAL   =    6.000    mass and valenz
   ENMAX  =  400.000; ENMIN  =  300.000 eV

   TITEL  = PAW_PBE Li 17Jan2003
   POMASS =    7.010; ZVAL   =    1.000    mass and valenz
   ENMAX  =  140.000; ENMIN  =  100.000 eV

  PAW_PBE O 08Apr2002                   :
  PAW_PBE Li 17Jan2003                  :

 POSCAR: O  Li
  positions in cartesian coordinates
 exchange correlation table for  LEXCH =        8
   RHO(1)=    0.500       N(1)  =     2000
   RHO(2)=  100.500       N(2)  =     4000

 VTST: version 3.2, (02/03/18)

 CHAIN: initializing optimizer

 OPT: Using VASP Conjugate-Gradient optimizer
 CHAIN: Read ICHAIN            0

 POSCAR: O  Li
  positions in cartesian coordinates

 ion  position               nearest neighbor table
   1  0.000  0.000  0.000-   9 2.01   7 2.01   8 2.01   6 2.01  10 2.01  11 2.01  12 2.01   5 2.01

   2  0.000  0.500  0.500-  10 2.01   5 2.01   8 2.01   7 2.01  11 2.01  12 2.01   9 2.01   6 2.01

[...]

   4  0.500  0.500  0.000-  12 2.01   5 2.01   7 2.01   6 2.01  11 2.01  10 2.01   9 2.01   8 2.01

   5  0.250  0.250  0.250-   2 2.01   3 2.01   4 2.01   1 2.01  10 2.32  11 2.32  12 2.32  11 2.32
                            10 2.32  12 2.32   8 3.29   7 3.29   6 3.29   8 3.29   8 3.29   6 3.29
   6  0.250  0.750  0.750-   3 2.01   4 2.01   1 2.01   2 2.01   9 2.32  12 2.32  11 2.32  12 2.32
                             9 2.32  11 2.32   7 3.29   5 3.29   8 3.29   7 3.29   7 3.29   5 3.29
   7  0.750  0.250  0.750-   2 2.01   4 2.01   1 2.01   3 2.01   9 2.32  12 2.32  10 2.32  12 2.32
                             9 2.32  10 2.32   6 3.29   5 3.29   8 3.29   6 3.29   6 3.29   5 3.29
   8  0.750  0.750  0.250-   2 2.01   3 2.01   1 2.01   4 2.01  10 2.32  11 2.32   9 2.32  10 2.32
                            11 2.32   9 2.32   5 3.29   6 3.29   7 3.29   5 3.29   5 3.29   6 3.29
   9  0.750  0.750  0.750-   1 2.01   2 2.01   3 2.01   4 2.01   6 2.32   7 2.32   8 2.32   7 2.32
                             6 2.32   8 2.32  12 3.29  11 3.29  10 3.29  12 3.29  12 3.29  10 3.29
  10  0.750  0.250  0.250-   2 2.01   3 2.01   4 2.01   1 2.01   5 2.32   8 2.32   7 2.32   5 2.32
                             8 2.32   7 2.32  11 3.29   9 3.29  12 3.29  11 3.29  11 3.29  12 3.29
  11  0.250  0.750  0.250-   3 2.01   2 2.01   4 2.01   1 2.01   5 2.32   8 2.32   6 2.32   5 2.32
                             8 2.32   6 2.32  10 3.29   9 3.29  12 3.29  10 3.29  10 3.29  12 3.29
  12  0.250  0.250  0.750-   4 2.01   3 2.01   2 2.01   1 2.01   6 2.32   7 2.32   5 2.32   6 2.32
                             7 2.32   5 2.32   9 3.29  10 3.29  11 3.29   9 3.29   9 3.29  11 3.29

  LATTYP: Found a simple cubic cell.
 ALAT       =     4.6466531801

  Lattice vectors:

 A1 = (   4.6466531801,   0.0000000000,  -0.0000000000)
 A2 = (   0.0000000000,   4.6466531801,   0.0000000000)
 A3 = (  -0.0000000000,   0.0000000000,   4.6466531801)

Analysis of symmetry for initial positions (statically):
 Subroutine PRICEL returns following result:

  LATTYP: Found a face centered cubic cell.
 ALAT       =     4.6466531801

[...]

   4 primitive cells build up your supercell.

 Routine SETGRP: Setting up the symmetry group for a
 simple cubic supercell.

 Subroutine GETGRP returns: Found 48 space group operations
 (whereof 48 operations were pure point group operations)
 out of a pool of 48 trial point group operations.

The static configuration has the point symmetry O_h .

Analysis of symmetry for dynamics (positions and initial velocities):
 Subroutine PRICEL returns following result:

  LATTYP: Found a face centered cubic cell.
 ALAT       =     4.6466531801

  Lattice vectors:

 A1 = (   2.3233265901,   2.3233265901,   0.0000000000)
 A2 = (   2.3233265901,   0.0000000000,  -2.3233265901)
 A3 = (   0.0000000000,   2.3233265901,  -2.3233265901)

   4 primitive cells build up your supercell.

 Routine SETGRP: Setting up the symmetry group for a
 simple cubic supercell.

 Subroutine GETGRP returns: Found 48 space group operations
 (whereof 48 operations were pure point group operations)
 out of a pool of 48 trial point group operations.

The dynamic configuration has the point symmetry O_h .

 Subroutine INISYM returns: Found 48 space group operations
 (whereof 48 operations are pure point group operations),
 and found     4 'primitive' translations

 KPOINTS: KPOINTS created by Atomic Simulation Env

Automatic generation of k-mesh.
Space group operators:
 irot       det(A)        alpha          n_x          n_y          n_z        tau_x        tau_y        tau_z
    1     1.000000     0.000000     1.000000     0.000000     0.000000     0.000000     0.000000     0.000000
    2    -1.000000     0.000000     1.000000     0.000000     0.000000     0.000000     0.000000     0.000000
    3     1.000000   120.000000    -0.577350    -0.577350    -0.577350     0.000000     0.000000     0.000000
    4    -1.000000   120.000000    -0.577350    -0.577350    -0.577350     0.000000     0.000000     0.000000
    5     1.000000   120.000000     0.577350     0.577350     0.577350     0.000000     0.000000     0.000000
    6    -1.000000   120.000000     0.577350     0.577350     0.577350     0.000000     0.000000     0.000000
    7     1.000000    90.000000    -0.000000     0.000000    -1.000000     0.000000     0.000000     0.000000
    8    -1.000000    90.000000    -0.000000     0.000000    -1.000000     0.000000     0.000000     0.000000
    9     1.000000   180.000000    -0.000000     0.707107     0.707107     0.000000     0.000000     0.000000
   10    -1.000000   180.000000    -0.000000     0.707107     0.707107     0.000000     0.000000     0.000000
   11     1.000000    90.000000     0.000000     1.000000     0.000000     0.000000     0.000000     0.000000
   12    -1.000000    90.000000     0.000000     1.000000     0.000000     0.000000     0.000000     0.000000
   13     1.000000   180.000000     0.000000    -0.000000     1.000000     0.000000     0.000000     0.000000
   14    -1.000000   180.000000     0.000000    -0.000000     1.000000     0.000000     0.000000     0.000000
   15     1.000000   120.000000    -0.577350     0.577350     0.577350     0.000000     0.000000     0.000000
   16    -1.000000   120.000000    -0.577350     0.577350     0.577350     0.000000     0.000000     0.000000
   17     1.000000   120.000000    -0.577350     0.577350    -0.577350     0.000000     0.000000     0.000000
   18    -1.000000   120.000000    -0.577350     0.577350    -0.577350     0.000000     0.000000     0.000000
   19     1.000000    90.000000     0.000000     0.000000     1.000000     0.000000     0.000000     0.000000
   20    -1.000000    90.000000     0.000000     0.000000     1.000000     0.000000     0.000000     0.000000
   21     1.000000    90.000000    -1.000000    -0.000000    -0.000000     0.000000     0.000000     0.000000
   22    -1.000000    90.000000    -1.000000    -0.000000    -0.000000     0.000000     0.000000     0.000000
   23     1.000000   180.000000    -0.707107     0.000000    -0.707107     0.000000     0.000000     0.000000
   24    -1.000000   180.000000    -0.707107     0.000000    -0.707107     0.000000     0.000000     0.000000
   25     1.000000   120.000000     0.577350    -0.577350     0.577350     0.000000     0.000000     0.000000
   26    -1.000000   120.000000     0.577350    -0.577350     0.577350     0.000000     0.000000     0.000000
   27     1.000000   120.000000    -0.577350    -0.577350     0.577350     0.000000     0.000000     0.000000
   28    -1.000000   120.000000    -0.577350    -0.577350     0.577350     0.000000     0.000000     0.000000
   29     1.000000   180.000000     1.000000     0.000000     0.000000     0.000000     0.000000     0.000000
   30    -1.000000   180.000000     1.000000     0.000000     0.000000     0.000000     0.000000     0.000000
   31     1.000000    90.000000    -0.000000    -1.000000     0.000000     0.000000     0.000000     0.000000
   32    -1.000000    90.000000    -0.000000    -1.000000     0.000000     0.000000     0.000000     0.000000
   33     1.000000   180.000000     0.707107     0.707107     0.000000     0.000000     0.000000     0.000000
   34    -1.000000   180.000000     0.707107     0.707107     0.000000     0.000000     0.000000     0.000000
   35     1.000000    90.000000     1.000000    -0.000000    -0.000000     0.000000     0.000000     0.000000
   36    -1.000000    90.000000     1.000000    -0.000000    -0.000000     0.000000     0.000000     0.000000
   37     1.000000   120.000000     0.577350    -0.577350    -0.577350     0.000000     0.000000     0.000000
   38    -1.000000   120.000000     0.577350    -0.577350    -0.577350     0.000000     0.000000     0.000000
   39     1.000000   180.000000     0.000000     1.000000    -0.000000     0.000000     0.000000     0.000000
   40    -1.000000   180.000000     0.000000     1.000000    -0.000000     0.000000     0.000000     0.000000
   41     1.000000   120.000000     0.577350     0.577350    -0.577350     0.000000     0.000000     0.000000
   42    -1.000000   120.000000     0.577350     0.577350    -0.577350     0.000000     0.000000     0.000000
   43     1.000000   180.000000     0.000000    -0.707107     0.707107     0.000000     0.000000     0.000000
   44    -1.000000   180.000000     0.000000    -0.707107     0.707107     0.000000     0.000000     0.000000
   45     1.000000   180.000000     0.707107    -0.707107     0.000000     0.000000     0.000000     0.000000
   46    -1.000000   180.000000     0.707107    -0.707107     0.000000     0.000000     0.000000     0.000000
   47     1.000000   180.000000     0.707107     0.000000    -0.707107     0.000000     0.000000     0.000000
   48    -1.000000   180.000000     0.707107     0.000000    -0.707107     0.000000     0.000000     0.000000

 Subroutine IBZKPT returns following result:

 Found     20 irreducible k-points:

 Following reciprocal coordinates:
            Coordinates               Weight
  0.000000  0.000000  0.000000      1.000000
  0.142857  0.000000 -0.000000      6.000000
  0.285714 -0.000000 -0.000000      6.000000
  0.428571 -0.000000 -0.000000      6.000000
  0.142857  0.142857 -0.000000     12.000000
  0.285714  0.142857 -0.000000     24.000000
  0.428571  0.142857 -0.000000     24.000000
  0.285714  0.285714 -0.000000     12.000000
  0.428571  0.285714 -0.000000     24.000000
  0.428571  0.428571 -0.000000     12.000000
  0.142857  0.142857  0.142857      8.000000
  0.285714  0.142857  0.142857     24.000000
  0.428571  0.142857  0.142857     24.000000
  0.285714  0.285714  0.142857     24.000000
  0.428571  0.285714  0.142857     48.000000
  0.428571  0.428571  0.142857     24.000000
  0.285714  0.285714  0.285714      8.000000
  0.428571  0.285714  0.285714     24.000000
  0.428571  0.428571  0.285714     24.000000
  0.428571  0.428571  0.428571      8.000000

[...]
  -exchange      EXHF   =         0.00000000
  -V(xc)+E(xc)   XCENC  =        78.98833573
  PAW double counting   =      1447.49883227    -1410.22640858
  entropy T*S    EENTRO =        -0.00937968
  eigenvalues    EBANDS =       -30.40554139
  atomic energy  EATOM  =      1771.45349510
  Solvation  Ediel_sol  =         0.00000000
  free energy    TOTEN  =       116.31133886 eV

  energy without entropy =      116.32071854  energy(sigma->0) =      116.31602870

[...]

 eigenvalue-minimisations  :  1336
 total energy-change (2. order) :-0.1707003E+03  (-0.1624034E+03)
 number of electron      32.0000000 magnetization
 augmentation part       32.0000000 magnetization

[...]

 Broyden mixing:
  rms(total) = 0.14253E+01    rms(broyden)= 0.14248E+01
  rms(prec ) = 0.33539E+01
  weight for this iteration     100.00

[...]

 eigenvalues of (default mixing * dielectric matrix)
  average eigenvalue GAMMA=   0.7677
  0.7677

[...]

 average (electrostatic) potential at core
  the test charge radii are     0.7215  0.9748
  (the norm of the test charge is              1.0000)
       1 -71.5535       2 -71.5535       3 -71.5535       4 -71.5535       5 -26.3602
       6 -26.3602       7 -26.3602       8 -26.3602       9 -26.3602      10 -26.3602
      11 -26.3602      12 -26.3602

 E-fermi :   1.3332     XC(G=0):  -9.2688     alpha+bet :-14.6967

 k-point     1 :       0.0000    0.0000    0.0000
  band No.  band energies     occupation
      1     -14.5892      2.00000
      2     -14.2765      2.00000
      3     -14.2765      2.00000
      4     -14.2765      2.00000
      5      -0.7259      2.00000
      6      -0.7259      2.00000
      7      -0.7259      2.00000
      8      -0.4788      2.00000
      9      -0.4788      2.00000
     10      -0.4788      2.00000
     11      -0.4788      2.00000
     12      -0.4788      2.00000
     13      -0.4788      2.00000
     14       0.8637      2.00000
     15       0.8637      2.00000
     16       0.8637      2.00000
     17       5.8313      0.00000
     18       5.8313      0.00000
     19       5.8313      0.00000
     20       6.0176      0.00000
     21      12.7282      0.00000
     22      12.7282      0.00000
     23      12.7282      0.00000
     24      14.2846      0.00000

[...]

 soft charge-density along one line, spin component           1
         0         1         2         3         4         5         6         7         8         9
 total charge-density along one line

------------------------ aborting loop because EDIFF is reached ----------------------------------------

  FORCE on cell =-STRESS in cart. coord.  units (eV):
  Direction    XX          YY          ZZ          XY          YZ          ZX
  Alpha Z    36.23132    36.23132    36.23132
  Ewald    -404.20952  -404.20952  -404.20952     0.00000    -0.00000    -0.00000
  Hartree   216.92028   216.92028   216.92028    -0.00000    -0.00000    -0.00000
  E(xc)    -140.86574  -140.86574  -140.86574    -0.00000     0.00000    -0.00000
  Local    -213.06552  -213.06552  -213.06552     0.00000     0.00000     0.00000
  n-local   -83.59226   -84.95472   -86.12052     0.20391     0.15545     0.11925
  augment    27.47511    27.47511    27.47511    -0.00000     0.00000    -0.00000
  Kinetic   552.16199   561.17075   565.75526    -1.53761    -1.25457    -0.94432
  Fock        0.00000     0.00000     0.00000     0.00000     0.00000     0.00000
  Total      -2.70725    -2.70725    -2.70725    -0.00000    -0.00000     0.00000
  in kB     -43.23322   -43.23322   -43.23322    -0.00000    -0.00000     0.00000

 VOLUME and BASIS-vectors are now :
  energy-cutoff  :      400.00
  volume of cell :      100.33
      direct lattice vectors                 reciprocal lattice vectors
     4.646653180  0.000000000 -0.000000000     0.215208659 -0.000000000  0.000000000
     0.000000000  4.646653180  0.000000000    -0.000000000  0.215208659 -0.000000000
    -0.000000000  0.000000000  4.646653180     0.000000000 -0.000000000  0.215208659

[...]

 FORCES acting on ions
    electron-ion (+dipol)            ewald-force                    non-local-force                 convergence-correction
   -.137E-08 -.137E-08 -.137E-08   0.136E-06 0.136E-06 0.136E-06   0.181E-24 0.827E-24 0.414E-24   0.253E-10 0.253E-10 0.253E-10
   -.137E-08 0.855E-07 0.855E-07   0.136E-06 0.150E-06 0.150E-06   -.281E-24 -.646E-25 0.414E-24   0.253E-10 -.254E-10 -.253E-10
   0.855E-07 -.137E-08 0.855E-07   0.150E-06 0.136E-06 0.150E-06   0.180E-24 -.620E-24 0.000E+00   -.254E-10 0.253E-10 -.253E-10
   0.855E-07 0.855E-07 -.137E-08   0.150E-06 0.150E-06 0.136E-06   0.105E-23 -.724E-24 -.414E-24   -.254E-10 -.254E-10 0.253E-10
   0.958E-07 0.958E-07 0.958E-07   -.727E-07 -.727E-07 -.727E-07   0.639E-17 -.119E-17 0.857E-17   0.943E-13 0.943E-13 0.947E-13
   0.958E-07 0.944E-07 0.944E-07   -.727E-07 -.706E-07 -.706E-07   -.239E-17 -.342E-17 0.987E-17   0.943E-13 -.770E-13 -.772E-13
   0.944E-07 0.958E-07 0.944E-07   -.706E-07 -.727E-07 -.706E-07   -.607E-17 -.602E-17 0.791E-17   -.770E-13 0.943E-13 -.772E-13
   0.944E-07 0.944E-07 0.958E-07   -.706E-07 -.706E-07 -.727E-07   -.328E-18 -.325E-18 0.127E-16   -.770E-13 -.770E-13 0.947E-13
   0.944E-07 0.944E-07 0.944E-07   -.706E-07 -.706E-07 -.706E-07   -.119E-17 0.255E-17 -.102E-16   -.768E-13 -.769E-13 -.772E-13
   0.944E-07 0.958E-07 0.958E-07   -.706E-07 -.727E-07 -.727E-07   -.431E-18 0.119E-17 -.412E-17   -.768E-13 0.944E-13 0.947E-13
   0.958E-07 0.944E-07 0.958E-07   -.727E-07 -.706E-07 -.727E-07   -.368E-17 -.260E-17 -.759E-17   0.945E-13 -.769E-13 0.947E-13
   0.958E-07 0.958E-07 0.944E-07   -.727E-07 -.727E-07 -.706E-07   -.141E-17 -.705E-18 -.846E-17   0.945E-13 0.944E-13 -.772E-13
   0.929E-06 0.929E-06 0.929E-06   -.174E-14 -.176E-14 -.214E-16   -.911E-17 -.105E-16 0.867E-17   -.780E-13 -.105E-12 0.141E-14

 POSITION                                       TOTAL-FORCE (eV/Angst)
      0.00000      0.00000      0.00000        -0.000000     -0.000000      0.000000
      0.00000      2.32333      2.32333         0.000000     -0.000000     -0.000000
      2.32333      0.00000      2.32333        -0.000000      0.000000     -0.000000
      2.32333      2.32333     -0.00000        -0.000000     -0.000000      0.000000
      1.16166      1.16166      1.16166         0.000000      0.000000      0.000000
      1.16166      3.48499      3.48499         0.000000      0.000000      0.000000
      3.48499      1.16166      3.48499         0.000000     -0.000000      0.000000
      3.48499      3.48499      1.16166         0.000000     -0.000000     -0.000000
      3.48499      3.48499      3.48499         0.000000      0.000000      0.000000
      3.48499      1.16166      1.16166         0.000000     -0.000000      0.000000
      1.16166      3.48499      1.16166         0.000000     -0.000000      0.000000
      1.16166      1.16166      3.48499         0.000000     -0.000000     -0.000000
    total drift:                                0.000001      0.000001      0.000001

  FREE ENERGIE OF THE ION-ELECTRON SYSTEM (eV)
  free  energy   TOTEN  =       -57.34360833 eV

  energy  without entropy=      -57.34360833  energy(sigma->0) =      -57.34360833

 stress matrix after NEB project (eV)
     -2.70725     -0.00000      0.00000
     -0.00000     -2.70725     -0.00000
      0.00000     -0.00000     -2.70725
  FORCES: max atom, RMS     0.000000    0.000000
  FORCE total and by dimension    0.000000    0.000000
  Stress total and by dimension    4.689088    2.707246

[...]

 d Force = 0.0000000E+00[ 0.000E+00, 0.000E+00]  d Energy = 0.5378514E-01-0.538E-01
 d Force = 0.0000000E+00[ 0.000E+00, 0.000E+00]  d Ewald  = 0.1334313E+02-0.133E+02

 stress matrix after NEB project (eV)
     -0.55924     -0.00000      0.00000
     -0.00000     -0.55924      0.00000
      0.00000     -0.00000     -0.55924
  FORCES: max atom, RMS     0.000000    0.000000
  FORCE total and by dimension    0.000000    0.000000
  Stress total and by dimension    0.968639    0.559244
 Steepest descent step on ions:
 trial-energy change:   -0.053785  1 .order   -0.053327   -0.088395   -0.018260
  (g-gl).g = 0.884E-01      g.g   = 0.884E-01  gl.gl    = 0.000E+00
 g(Force)  = 0.843E-48   g(Stress)= 0.884E-01 ortho     = 0.000E+00
 gamma     =   0.00000
 trial     =   1.00000
 opt step  =   1.24822  (harmonic =   1.26036) maximal distance =0.00000000
 next E    =   -57.399667   (d E  =  -0.05606)

[...]

 eigenvalue-minimisations  :  1072
 total energy-change (2. order) : 0.4246199E-05  (-0.4035925E-05)
 number of electron      31.9999840 magnetization
 augmentation part        2.6888352 magnetization

 Broyden mixing:
  rms(total) = 0.49642E-03    rms(broyden)= 0.49629E-03
  rms(prec ) = 0.84928E-03
  weight for this iteration     100.00

 eigenvalues of (default mixing * dielectric matrix)
  average eigenvalue GAMMA=   1.7207
  0.9223  0.9223  2.5190  2.5190

[...]

--------------------------------------- Iteration      3(   6)  ---------------------------------------

 eigenvalue-minimisations  :   584
 total energy-change (2. order) :-0.5941836E-06  (-0.1469548E-06)
 number of electron      31.9999840 magnetization
 augmentation part        2.6888352 magnetization

 Free energy of the ion-electron system (eV)
  alpha Z        PSCENC =        37.74900938
  Ewald energy   TEWEN  =     -1229.32772299
  -Hartree energ DENC   =      -640.83459172
  -exchange      EXHF   =         0.00000000
  -V(xc)+E(xc)   XCENC  =        85.39264066
  PAW double counting   =      2047.53035130    -2011.57390466
  entropy T*S    EENTRO =        -0.00000000
  eigenvalues    EBANDS =      -117.78903662
  atomic energy  EATOM  =      1771.45349510
  Solvation  Ediel_sol  =         0.00000000
  free energy    TOTEN  =       -57.39975956 eV

  energy without entropy =      -57.39975956  energy(sigma->0) =      -57.39975956

 average (electrostatic) potential at core
  the test charge radii are     0.7215  0.9748
  (the norm of the test charge is              1.0000)
       1 -71.3175       2 -71.3175       3 -71.3175       4 -71.3175       5 -26.0520
       6 -26.0520       7 -26.0520       8 -26.0520       9 -26.0520      10 -26.0520
      11 -26.0520      12 -26.0520

 E-fermi :   1.5038     XC(G=0):  -9.4322     alpha+bet :-15.3124

[...]

 k-point    20 :       0.4286    0.4286    0.4286
  band No.  band energies     occupation
      1     -14.2064      2.00000
      2     -14.1884      2.00000
      3     -14.1884      2.00000
      4     -14.1884      2.00000
      5      -1.6993      2.00000
      6      -1.6993      2.00000
      7      -1.6993      2.00000
      8      -1.6342      2.00000
      9       0.5478      2.00000
     10       0.5478      2.00000
     11       0.5478      2.00000
     12       0.5567      2.00000
     13       0.5567      2.00000
     14       0.5567      2.00000
     15       0.6301      2.00000
     16       0.6301      2.00000
     17       9.8695      0.00000
     18      10.1221      0.00000
     19      10.1221      0.00000
     20      10.1221      0.00000
     21      11.3074      0.00000
     22      11.3074      0.00000
     23      11.3074      0.00000
     24      11.6808      0.00000

 soft charge-density along one line, spin component           1
         0         1         2         3         4         5         6         7         8         9
 total charge-density along one line

------------------------ aborting loop because EDIFF is reached ----------------------------------------

  FORCE on cell =-STRESS in cart. coord.  units (eV):
  Direction    XX          YY          ZZ          XY          YZ          ZX
  Alpha Z    37.74901    37.74901    37.74901
  Ewald    -409.77646  -409.77646  -409.77646     0.00000    -0.00000    -0.00000
  Hartree   213.61193   213.61193   213.61193    -0.00000    -0.00000    -0.00000
  E(xc)    -141.52768  -141.52768  -141.52768     0.00000    -0.00000    -0.00000
  Local    -205.47025  -205.47025  -205.47025     0.00000     0.00000     0.00000
  n-local   -82.85281   -84.23621   -85.46133     0.19501     0.14915     0.11423
  augment    27.65322    27.65322    27.65322     0.00000     0.00000    -0.00000
  Kinetic   554.22309   563.42666   568.13649    -1.56574    -1.27787    -0.96175
  Fock        0.00000     0.00000     0.00000     0.00000     0.00000     0.00000
  Total      -0.01493    -0.01493    -0.01493    -0.00000     0.00000    -0.00000
  in kB      -0.24845    -0.24845    -0.24845    -0.00000     0.00000    -0.00000

 VOLUME and BASIS-vectors are now :
  energy-cutoff  :      400.00
  volume of cell :       96.29
      direct lattice vectors                 reciprocal lattice vectors
     4.583526941  0.000000000 -0.000000000     0.218172602 -0.000000000  0.000000000
     0.000000000  4.583526941 -0.000000000    -0.000000000  0.218172602  0.000000000
    -0.000000000 -0.000000000  4.583526941     0.000000000  0.000000000  0.218172602

  length of vectors
     4.583526941  4.583526941  4.583526941     0.218172602  0.218172602  0.218172602

 FORCES acting on ions
    electron-ion (+dipol)            ewald-force                    non-local-force                 convergence-correction
   -.155E-08 -.155E-08 -.155E-08   0.140E-06 0.140E-06 0.140E-06   0.814E-24 0.724E-24 -.414E-24   -.102E-12 -.107E-12 -.751E-13
   -.155E-08 0.839E-07 0.839E-07   0.140E-06 0.155E-06 0.155E-06   0.468E-24 -.465E-24 -.414E-24   -.102E-12 0.449E-12 0.474E-12
   0.839E-07 -.155E-08 0.839E-07   0.155E-06 0.140E-06 0.155E-06   -.709E-24 0.620E-24 -.827E-24   0.454E-12 -.108E-12 0.473E-12
   0.839E-07 0.839E-07 -.155E-08   0.155E-06 0.155E-06 0.140E-06   0.245E-24 0.591E-24 -.414E-24   0.455E-12 0.446E-12 -.789E-13
   0.985E-07 0.985E-07 0.985E-07   -.747E-07 -.747E-07 -.747E-07   -.380E-17 0.352E-17 -.867E-18   -.292E-14 -.280E-14 -.266E-14
   0.985E-07 0.971E-07 0.971E-07   -.747E-07 -.725E-07 -.725E-07   -.978E-18 -.759E-18 0.217E-18   -.293E-14 0.502E-15 0.889E-15
   0.971E-07 0.985E-07 0.971E-07   -.725E-07 -.747E-07 -.725E-07   -.120E-17 -.412E-17 -.282E-17   0.105E-14 -.279E-14 0.920E-15
   0.971E-07 0.971E-07 0.985E-07   -.725E-07 -.725E-07 -.747E-07   -.120E-17 -.244E-17 0.390E-17   0.106E-14 0.513E-15 -.266E-14
   0.971E-07 0.971E-07 0.971E-07   -.725E-07 -.725E-07 -.725E-07   -.292E-17 0.390E-17 -.542E-18   0.101E-14 0.816E-15 0.754E-15
   0.971E-07 0.985E-07 0.985E-07   -.725E-07 -.747E-07 -.747E-07   -.119E-17 0.222E-17 -.228E-17   0.987E-15 -.248E-14 -.283E-14
   0.985E-07 0.971E-07 0.985E-07   -.747E-07 -.725E-07 -.747E-07   -.466E-17 0.276E-17 -.379E-17   -.299E-14 0.820E-15 -.280E-14
   0.985E-07 0.985E-07 0.971E-07   -.747E-07 -.747E-07 -.725E-07   -.444E-17 -.249E-17 -.119E-17   -.299E-14 -.248E-14 0.755E-15
   0.947E-06 0.947E-06 0.947E-06   0.358E-14 -.446E-16 -.266E-16   -.204E-16 0.260E-17 -.737E-17   0.697E-12 0.672E-12 0.785E-12

 POSITION                                       TOTAL-FORCE (eV/Angst)
     -0.00000     -0.00000      0.00000        -0.000000      0.000000     -0.000000
      0.00000      2.29176      2.29176        -0.000000     -0.000000      0.000000
      2.29176      0.00000      2.29176         0.000000      0.000000     -0.000000
      2.29176      2.29176     -0.00000         0.000000     -0.000000      0.000000
      1.14588      1.14588      1.14588        -0.000000     -0.000000      0.000000
      1.14588      3.43765      3.43765        -0.000000     -0.000000      0.000000
      3.43765      1.14588      3.43765        -0.000000     -0.000000      0.000000
      3.43765      3.43765      1.14588        -0.000000     -0.000000      0.000000
      3.43765      3.43765      3.43765        -0.000000     -0.000000      0.000000
      3.43765      1.14588      1.14588        -0.000000     -0.000000      0.000000
      1.14588      3.43765      1.14588        -0.000000      0.000000      0.000000
      1.14588      1.14588      3.43765         0.000000     -0.000000      0.000000
    total drift:                                0.000001      0.000001      0.000001

  FREE ENERGIE OF THE ION-ELECTRON SYSTEM (eV)
  free  energy   TOTEN  =       -57.39975956 eV

  energy  without entropy=      -57.39975956  energy(sigma->0) =      -57.39975956

 d Force = 0.0000000E+00[ 0.000E+00, 0.000E+00]  d Energy = 0.2366081E-02-0.237E-02
 d Force = 0.0000000E+00[ 0.000E+00, 0.000E+00]  d Ewald  = 0.3357676E+01-0.336E+01

 stress matrix after NEB project (eV)
     -0.01493     -0.00000     -0.00000
     -0.00000     -0.01493     -0.00000
      0.00000      0.00000     -0.01493
  FORCES: max atom, RMS     0.000000    0.000000
  FORCE total and by dimension    0.000000    0.000000
  Stress total and by dimension    0.025863    0.014932

 reached required accuracy - stopping structural energy minimisation